Ag8Se2S2                                
   1.00000000000000     
     4.1824744493108303    0.0000000000000000    0.0440866973929809
     0.0000000000000000    6.7879451812649627    0.0000000000000000
    -2.6337816774791536    0.0000000000000000    7.8845489807319860
   Ag   Se   S 
     8     2     2
Direct
  0.5624885713059679  0.4754086530546830  0.8287307256352343
  0.3263388854646789  0.5236635283775014  0.1247504655250326
  0.2249651431148011  0.3482339022407879  0.4492516248045346
  0.4375114286940319  0.9754086230546877  0.6712692743647657
  0.6736611145353211  0.0236635043775061  0.3752495344749677
  0.8066051639565326  0.6399434901414817  0.5579162474380448
  0.1933948060434650  0.1399435051414793  0.9420837525619552
  0.7750348268851964  0.8482339022407874  0.0507483781954693
  0.8089551353905605  0.2528512297921499  0.1406050229598223
  0.1910448946094347  0.7528512447921476  0.3593949920401758
  0.1795160263344792  0.7598992113933943  0.8525109042133553
  0.8204840036655161  0.2598992113933941  0.6474890957866447
 
  0.00000000E+00  0.00000000E+00  0.00000000E+00
  0.00000000E+00  0.00000000E+00  0.00000000E+00
  0.00000000E+00  0.00000000E+00  0.00000000E+00
  0.00000000E+00  0.00000000E+00  0.00000000E+00
  0.00000000E+00  0.00000000E+00  0.00000000E+00
  0.00000000E+00  0.00000000E+00  0.00000000E+00
  0.00000000E+00  0.00000000E+00  0.00000000E+00
  0.00000000E+00  0.00000000E+00  0.00000000E+00
  0.00000000E+00  0.00000000E+00  0.00000000E+00
  0.00000000E+00  0.00000000E+00  0.00000000E+00
  0.00000000E+00  0.00000000E+00  0.00000000E+00
  0.00000000E+00  0.00000000E+00  0.00000000E+00
