  PAW_PBE Ag 02Apr2005                   
   11.0000000000000     
 parameters from PSCTR are:
   VRHFIN =Ag : s1 d10
   LEXCH  = PE
   EATOM  =  1037.2675 eV,   76.2370 Ry

   TITEL  = PAW_PBE Ag 02Apr2005
   LULTRA =        F    use ultrasoft PP ?
   IUNSCR =        1    unscreen: 0-lin 1-nonlin 2-no
   RPACOR =    2.000    partial core radius
   POMASS =  107.868; ZVAL   =   11.000    mass and valenz
   RCORE  =    2.500    outmost cutoff radius
   RWIGS  =    2.840; RWIGS  =    1.503    wigner-seitz radius (au A)
   ENMAX  =  249.844; ENMIN  =  187.383 eV
   ICORE  =        3    local potential
   LCOR   =        T    correct aug charges
   LPAW   =        T    paw PP
   EAUG   =  412.496
   DEXC   =    0.000
   RMAX   =    2.560    core radius for proj-oper
   RAUG   =    1.300    factor for augmentation sphere
   RDEP   =    2.576    radius for radial grids
   RDEPT  =    2.072    core radius for aug-charge
 
   Atomic configuration
   12 entries
     n  l   j            E        occ.
     1  0  0.50    -25324.9161   2.0000
     2  0  0.50     -3728.5341   2.0000
     2  1  1.50     -3344.0404   6.0000
     3  0  0.50      -683.5581   2.0000
     3  1  1.50      -557.3225   6.0000
     3  2  2.50      -358.3853  10.0000
     4  0  0.50       -95.0341   2.0000
     4  1  1.50       -58.5511   6.0000
     4  2  2.50        -7.4440  10.0000
     5  0  0.50        -4.4045   1.0000
     5  1  0.50        -1.3606   0.0000
     4  3  2.50        -1.3606   0.0000
   Description
     l       E           TYP  RCUT    TYP  RCUT
     2     -7.4439781     23  2.400
     2     -8.8045607     23  2.400
     0     -4.4044681     23  2.400
     0      1.9520038     23  2.400
     1     -1.3605826     23  2.500
     1     27.2116520     23  2.500
     3     -4.0817478     23  2.400
   Error from kinetic energy argument (eV)
   NDATA  =      100
   STEP   =   20.000   1.050
  191.      188.      187.      184.      183.      180.      176.      175.
  171.      167.      165.      161.      157.      152.      148.      143.
  138.      133.      128.      120.      115.      110.      102.      96.6
  91.5      84.0      76.6      71.9      65.0      58.4      52.2      46.4
  40.9      35.9      31.2      27.0      22.0      18.7      14.8      12.3
  9.50      7.19      5.34      3.88      2.75      1.90      1.28     0.746
 0.468     0.253     0.137     0.902E-01 0.641E-01 0.567E-01 0.558E-01 0.548E-01
 0.512E-01 0.434E-01 0.337E-01 0.241E-01 0.161E-01 0.106E-01 0.737E-02 0.578E-02
 0.546E-02 0.542E-02 0.518E-02 0.453E-02 0.347E-02 0.252E-02 0.169E-02 0.123E-02
 0.107E-02 0.105E-02 0.102E-02 0.902E-03 0.699E-03 0.497E-03 0.351E-03 0.301E-03
 0.294E-03 0.281E-03 0.239E-03 0.175E-03 0.126E-03 0.106E-03 0.103E-03 0.966E-04
 0.778E-04 0.567E-04 0.445E-04 0.425E-04 0.402E-04 0.327E-04 0.238E-04 0.201E-04
 0.196E-04 0.173E-04 0.128E-04 0.104E-04
END of PSCTR-controll parameters
 local part
   75.5890395431569     
  0.77325279E+02  0.77324101E+02  0.77333877E+02  0.77350122E+02  0.77372758E+02
  0.77401676E+02  0.77436724E+02  0.77477708E+02  0.77524387E+02  0.77576469E+02
  0.77633611E+02  0.77695416E+02  0.77761440E+02  0.77831188E+02  0.77904122E+02
  0.77979663E+02  0.78057197E+02  0.78136077E+02  0.78215629E+02  0.78295153E+02
  0.78373925E+02  0.78451199E+02  0.78526210E+02  0.78598170E+02  0.78666275E+02
  0.78729700E+02  0.78787603E+02  0.78839131E+02  0.78883415E+02  0.78919578E+02
  0.78946738E+02  0.78964009E+02  0.78970505E+02  0.78965344E+02  0.78947652E+02
  0.78916561E+02  0.78871217E+02  0.78810780E+02  0.78734426E+02  0.78641351E+02
  0.78530773E+02  0.78401935E+02  0.78254108E+02  0.78086592E+02  0.77898723E+02
  0.77689874E+02  0.77459455E+02  0.77206921E+02  0.76931771E+02  0.76633548E+02
  0.76311848E+02  0.75966314E+02  0.75596644E+02  0.75202587E+02  0.74783951E+02
  0.74340598E+02  0.73872451E+02  0.73379489E+02  0.72861757E+02  0.72319357E+02
  0.71752455E+02  0.71161279E+02  0.70546121E+02  0.69907332E+02  0.69245327E+02
  0.68560582E+02  0.67853631E+02  0.67125068E+02  0.66375547E+02  0.65605773E+02
  0.64816511E+02  0.64008574E+02  0.63182829E+02  0.62340190E+02  0.61481616E+02
  0.60608111E+02  0.59720717E+02  0.58820512E+02  0.57908611E+02  0.56986156E+02
  0.56054315E+02  0.55114281E+02  0.54167265E+02  0.53214491E+02  0.52257199E+02
  0.51296631E+02  0.50334037E+02  0.49370665E+02  0.48407757E+02  0.47446548E+02
  0.46488259E+02  0.45534096E+02  0.44585243E+02  0.43642861E+02  0.42708080E+02
  0.41782002E+02  0.40865692E+02  0.39960177E+02  0.39066442E+02  0.38185431E+02
  0.37318036E+02  0.36465106E+02  0.35627432E+02  0.34805754E+02  0.34000759E+02
  0.33213071E+02  0.32443259E+02  0.31691831E+02  0.30959235E+02  0.30245856E+02
  0.29552021E+02  0.28877991E+02  0.28223970E+02  0.27590097E+02  0.26976455E+02
  0.26383064E+02  0.25809889E+02  0.25256837E+02  0.24723760E+02  0.24210458E+02
  0.23716678E+02  0.23242119E+02  0.22786435E+02  0.22349234E+02  0.21930086E+02
  0.21528520E+02  0.21144033E+02  0.20776086E+02  0.20424115E+02  0.20087530E+02
  0.19765717E+02  0.19458043E+02  0.19163862E+02  0.18882514E+02  0.18613328E+02
  0.18355631E+02  0.18108744E+02  0.17871992E+02  0.17644701E+02  0.17426206E+02
  0.17215849E+02  0.17012987E+02  0.16816989E+02  0.16627243E+02  0.16443157E+02
  0.16264160E+02  0.16089702E+02  0.15919262E+02  0.15752343E+02  0.15588479E+02
  0.15427230E+02  0.15268188E+02  0.15110977E+02  0.14955250E+02  0.14800695E+02
  0.14647030E+02  0.14494006E+02  0.14341406E+02  0.14189044E+02  0.14036765E+02
  0.13884445E+02  0.13731987E+02  0.13579326E+02  0.13426421E+02  0.13273259E+02
  0.13119850E+02  0.12966229E+02  0.12812449E+02  0.12658586E+02  0.12504733E+02
  0.12350999E+02  0.12197507E+02  0.12044393E+02  0.11891803E+02  0.11739893E+02
  0.11588824E+02  0.11438764E+02  0.11289882E+02  0.11142351E+02  0.10996343E+02
  0.10852026E+02  0.10709568E+02  0.10569129E+02  0.10430866E+02  0.10294924E+02
  0.10161444E+02  0.10030554E+02  0.99023710E+01  0.97770020E+01  0.96545405E+01
  0.95350672E+01  0.94186493E+01  0.93053402E+01  0.91951789E+01  0.90881904E+01
  0.89843853E+01  0.88837601E+01  0.87862972E+01  0.86919654E+01  0.86007201E+01
  0.85125041E+01  0.84272480E+01  0.83448710E+01  0.82652816E+01  0.81883784E+01
  0.81140512E+01  0.80421816E+01  0.79726441E+01  0.79053072E+01  0.78400342E+01
  0.77766846E+01  0.77151147E+01  0.76551787E+01  0.75967302E+01  0.75396228E+01
  0.74837112E+01  0.74288522E+01  0.73749057E+01  0.73217357E+01  0.72692106E+01
  0.72172048E+01  0.71655986E+01  0.71142795E+01  0.70631422E+01  0.70120898E+01
  0.69610335E+01  0.69098937E+01  0.68585996E+01  0.68070901E+01  0.67553135E+01
  0.67032276E+01  0.66508001E+01  0.65980080E+01  0.65448377E+01  0.64912850E+01
  0.64373542E+01  0.63830583E+01  0.63284184E+01  0.62734633E+01  0.62182289E+01
  0.61627576E+01  0.61070980E+01  0.60513042E+01  0.59954348E+01  0.59395528E+01
  0.58837247E+01  0.58280195E+01  0.57725085E+01  0.57172641E+01  0.56623597E+01
  0.56078684E+01  0.55538628E+01  0.55004141E+01  0.54475915E+01  0.53954619E+01
  0.53440890E+01  0.52935331E+01  0.52438504E+01  0.51950927E+01  0.51473071E+01
  0.51005355E+01  0.50548141E+01  0.50101738E+01  0.49666395E+01  0.49242300E+01
  0.48829584E+01  0.48428313E+01  0.48038495E+01  0.47660078E+01  0.47292952E+01
  0.46936951E+01  0.46591852E+01  0.46257383E+01  0.45933222E+01  0.45619000E+01
  0.45314306E+01  0.45018691E+01  0.44731672E+01  0.44452733E+01  0.44181334E+01
  0.43916915E+01  0.43658895E+01  0.43406687E+01  0.43159692E+01  0.42917311E+01
  0.42678946E+01  0.42444005E+01  0.42211910E+01  0.41982093E+01  0.41754008E+01
  0.41527131E+01  0.41300962E+01  0.41075033E+01  0.40848906E+01  0.40622178E+01
  0.40394484E+01  0.40165497E+01  0.39934932E+01  0.39702543E+01  0.39468129E+01
  0.39231530E+01  0.38992630E+01  0.38751355E+01  0.38507673E+01  0.38261594E+01
  0.38013167E+01  0.37762481E+01  0.37509658E+01  0.37254859E+01  0.36998274E+01
  0.36740127E+01  0.36480664E+01  0.36220160E+01  0.35958907E+01  0.35697219E+01
  0.35435422E+01  0.35173854E+01  0.34912862E+01  0.34652798E+01  0.34394015E+01
  0.34136865E+01  0.33881696E+01  0.33628849E+01  0.33378652E+01  0.33131424E+01
  0.32887466E+01  0.32647061E+01  0.32410472E+01  0.32177939E+01  0.31949681E+01
  0.31725887E+01  0.31506722E+01  0.31292324E+01  0.31082800E+01  0.30878230E+01
  0.30678664E+01  0.30484125E+01  0.30294604E+01  0.30110066E+01  0.29930448E+01
  0.29755659E+01  0.29585584E+01  0.29420083E+01  0.29258992E+01  0.29102129E+01
  0.28949289E+01  0.28800254E+01  0.28654787E+01  0.28512640E+01  0.28373555E+01
  0.28237264E+01  0.28103493E+01  0.27971966E+01  0.27842403E+01  0.27714526E+01
  0.27588060E+01  0.27462733E+01  0.27338282E+01  0.27214452E+01  0.27091000E+01
  0.26967694E+01  0.26844317E+01  0.26720669E+01  0.26596565E+01  0.26471839E+01
  0.26346344E+01  0.26219952E+01  0.26092555E+01  0.25964068E+01  0.25834422E+01
  0.25703574E+01  0.25571499E+01  0.25438192E+01  0.25303670E+01  0.25167966E+01
  0.25031135E+01  0.24893249E+01  0.24754394E+01  0.24614673E+01  0.24474205E+01
  0.24333117E+01  0.24191552E+01  0.24049658E+01  0.23907595E+01  0.23765526E+01
  0.23623622E+01  0.23482054E+01  0.23340998E+01  0.23200627E+01  0.23061114E+01
  0.22922629E+01  0.22785336E+01  0.22649394E+01  0.22514954E+01  0.22382160E+01
  0.22251144E+01  0.22122029E+01  0.21994924E+01  0.21869928E+01  0.21747126E+01
  0.21626589E+01  0.21508374E+01  0.21392525E+01  0.21279070E+01  0.21168023E+01
  0.21059385E+01  0.20953142E+01  0.20849264E+01  0.20747711E+01  0.20648429E+01
  0.20551351E+01  0.20456399E+01  0.20363485E+01  0.20272513E+01  0.20183376E+01
  0.20095960E+01  0.20010147E+01  0.19925811E+01  0.19842823E+01  0.19761050E+01
  0.19680360E+01  0.19600618E+01  0.19521688E+01  0.19443439E+01  0.19365741E+01
  0.19288467E+01  0.19211496E+01  0.19134711E+01  0.19058005E+01  0.18981274E+01
  0.18904424E+01  0.18827371E+01  0.18750036E+01  0.18672353E+01  0.18594264E+01
  0.18515723E+01  0.18436691E+01  0.18357142E+01  0.18277058E+01  0.18196434E+01
  0.18115273E+01  0.18033587E+01  0.17951400E+01  0.17868742E+01  0.17785653E+01
  0.17702180E+01  0.17618377E+01  0.17534305E+01  0.17450030E+01  0.17365623E+01
  0.17281159E+01  0.17196716E+01  0.17112375E+01  0.17028220E+01  0.16944333E+01
  0.16860799E+01  0.16777700E+01  0.16695118E+01  0.16613131E+01  0.16531816E+01
  0.16451245E+01  0.16371487E+01  0.16292603E+01  0.16214653E+01  0.16137689E+01
  0.16061755E+01  0.15986892E+01  0.15913133E+01  0.15840504E+01  0.15769024E+01
  0.15698705E+01  0.15629551E+01  0.15561561E+01  0.15494725E+01  0.15429029E+01
  0.15364449E+01  0.15300958E+01  0.15238523E+01  0.15177103E+01  0.15116656E+01
  0.15057133E+01  0.14998482E+01  0.14940649E+01  0.14883576E+01  0.14827203E+01
  0.14771468E+01  0.14716309E+01  0.14661663E+01  0.14607467E+01  0.14553661E+01
  0.14500181E+01  0.14446971E+01  0.14393974E+01  0.14341136E+01  0.14288406E+01
  0.14235738E+01  0.14183090E+01  0.14130422E+01  0.14077700E+01  0.14024895E+01
  0.13971982E+01  0.13918941E+01  0.13865757E+01  0.13812421E+01  0.13758927E+01
  0.13705275E+01  0.13651471E+01  0.13597524E+01  0.13543447E+01  0.13489258E+01
  0.13434980E+01  0.13380636E+01  0.13326256E+01  0.13271870E+01  0.13217511E+01
  0.13163215E+01  0.13109018E+01  0.13054958E+01  0.13001074E+01  0.12947404E+01
  0.12893987E+01  0.12840862E+01  0.12788066E+01  0.12735635E+01  0.12683602E+01
  0.12632000E+01  0.12580859E+01  0.12530205E+01  0.12480063E+01  0.12430454E+01
  0.12381396E+01  0.12332902E+01  0.12284984E+01  0.12237650E+01  0.12190902E+01
  0.12144741E+01  0.12099165E+01  0.12054165E+01  0.12009731E+01  0.11965850E+01
  0.11922506E+01  0.11879678E+01  0.11837344E+01  0.11795480E+01  0.11754059E+01
  0.11713053E+01  0.11672432E+01  0.11632166E+01  0.11592221E+01  0.11552567E+01
  0.11513171E+01  0.11473999E+01  0.11435022E+01  0.11396206E+01  0.11357523E+01
  0.11318944E+01  0.11280441E+01  0.11241989E+01  0.11203566E+01  0.11165151E+01
  0.11126726E+01  0.11088276E+01  0.11049788E+01  0.11011253E+01  0.10972664E+01
  0.10934016E+01  0.10895309E+01  0.10856546E+01  0.10817730E+01  0.10778870E+01
  0.10739976E+01  0.10701060E+01  0.10662138E+01  0.10623228E+01  0.10584348E+01
  0.10545521E+01  0.10506768E+01  0.10468113E+01  0.10429581E+01  0.10391196E+01
  0.10352986E+01  0.10314974E+01  0.10277188E+01  0.10239651E+01  0.10202388E+01
  0.10165423E+01  0.10128777E+01  0.10092471E+01  0.10056524E+01  0.10020953E+01
  0.99857727E+00  0.99509954E+00  0.99166311E+00  0.98826874E+00  0.98491691E+00
  0.98160785E+00  0.97834152E+00  0.97511758E+00  0.97193548E+00  0.96879437E+00
  0.96569316E+00  0.96263052E+00  0.95960487E+00  0.95661443E+00  0.95365721E+00
  0.95073101E+00  0.94783352E+00  0.94496224E+00  0.94211459E+00  0.93928788E+00
  0.93647937E+00  0.93368628E+00  0.93090584E+00  0.92813527E+00  0.92537184E+00
  0.92261290E+00  0.91985587E+00  0.91709831E+00  0.91433789E+00  0.91157246E+00
  0.90880005E+00  0.90601888E+00  0.90322740E+00  0.90042429E+00  0.89760849E+00
  0.89477918E+00  0.89193581E+00  0.88907810E+00  0.88620603E+00  0.88331986E+00
  0.88042011E+00  0.87750753E+00  0.87458317E+00  0.87164827E+00  0.86870433E+00
  0.86575306E+00  0.86279637E+00  0.85983635E+00  0.85687527E+00  0.85391550E+00
  0.85095956E+00  0.84801004E+00  0.84506961E+00  0.84214096E+00  0.83922680E+00
  0.83632981E+00  0.83345266E+00  0.83059794E+00  0.82776813E+00  0.82496564E+00
  0.82219273E+00  0.81945148E+00  0.81674383E+00  0.81407151E+00  0.81143602E+00
  0.80883867E+00  0.80628048E+00  0.80376224E+00  0.80128448E+00  0.79884746E+00
  0.79645116E+00  0.79409531E+00  0.79177937E+00  0.78950253E+00  0.78726373E+00
  0.78506168E+00  0.78289482E+00  0.78076141E+00  0.77865946E+00  0.77658681E+00
  0.77454112E+00  0.77251990E+00  0.77052053E+00  0.76854029E+00  0.76657635E+00
  0.76462586E+00  0.76268594E+00  0.76075367E+00  0.75882620E+00  0.75690069E+00
  0.75497438E+00  0.75304460E+00  0.75110881E+00  0.74916460E+00  0.74720970E+00
  0.74524204E+00  0.74325975E+00  0.74126116E+00  0.73924484E+00  0.73720960E+00
  0.73515451E+00  0.73307889E+00  0.73098232E+00  0.72886467E+00  0.72672606E+00
  0.72456686E+00  0.72238773E+00  0.72018955E+00  0.71797347E+00  0.71574086E+00
  0.71349331E+00  0.71123264E+00  0.70896084E+00  0.70668007E+00  0.70439268E+00
  0.70210110E+00  0.69980792E+00  0.69751578E+00  0.69522738E+00  0.69294547E+00
  0.69067281E+00  0.68841212E+00  0.68616612E+00  0.68393744E+00  0.68172865E+00
  0.67954218E+00  0.67738037E+00  0.67524539E+00  0.67313926E+00  0.67106379E+00
  0.66902060E+00  0.66701110E+00  0.66503646E+00  0.66309760E+00  0.66119521E+00
  0.65932972E+00  0.65750129E+00  0.65570986E+00  0.65395508E+00  0.65223637E+00
  0.65055291E+00  0.64890361E+00  0.64728719E+00  0.64570214E+00  0.64414672E+00
  0.64261903E+00  0.64111699E+00  0.63963834E+00  0.63818073E+00  0.63674165E+00
  0.63531854E+00  0.63390875E+00  0.63250960E+00  0.63111837E+00  0.62973236E+00
  0.62834890E+00  0.62696533E+00  0.62557911E+00  0.62418775E+00  0.62278889E+00
  0.62138028E+00  0.61995984E+00  0.61852566E+00  0.61707599E+00  0.61560930E+00
  0.61412427E+00  0.61261978E+00  0.61109498E+00  0.60954922E+00  0.60798211E+00
  0.60639346E+00  0.60478338E+00  0.60315216E+00  0.60150036E+00  0.59982875E+00
  0.59813832E+00  0.59643028E+00  0.59470604E+00  0.59296718E+00  0.59121548E+00
  0.58945285E+00  0.58768134E+00  0.58590313E+00  0.58412049E+00  0.58233576E+00
  0.58055134E+00  0.57876966E+00  0.57699315E+00  0.57522427E+00  0.57346541E+00
  0.57171893E+00  0.56998713E+00  0.56827219E+00  0.56657621E+00  0.56490116E+00
  0.56324887E+00  0.56162098E+00  0.56001899E+00  0.55844420E+00  0.55689772E+00
  0.55538045E+00  0.55389307E+00  0.55243607E+00  0.55100970E+00  0.54961400E+00
  0.54824881E+00  0.54691372E+00  0.54560814E+00  0.54433127E+00  0.54308210E+00
  0.54185944E+00  0.54066191E+00  0.53948798E+00  0.53833597E+00  0.53720405E+00
  0.53609030E+00  0.53499267E+00  0.53390905E+00  0.53283726E+00  0.53177509E+00
  0.53072029E+00  0.52967061E+00  0.52862382E+00  0.52757770E+00  0.52653010E+00
  0.52547894E+00  0.52442220E+00  0.52335800E+00  0.52228455E+00  0.52120020E+00
  0.52010346E+00  0.51899299E+00  0.51786762E+00  0.51672635E+00  0.51556838E+00
  0.51439308E+00  0.51320004E+00  0.51198901E+00  0.51075995E+00  0.50951301E+00
  0.50824854E+00  0.50696707E+00  0.50566930E+00  0.50435611E+00  0.50302857E+00
  0.50168786E+00  0.50033533E+00  0.49897246E+00  0.49760082E+00  0.49622210E+00
  0.49483807E+00  0.49345055E+00  0.49206142E+00  0.49067259E+00  0.48928600E+00
  0.48790357E+00  0.48652722E+00  0.48515883E+00  0.48380023E+00  0.48245319E+00
  0.48111941E+00  0.47980046E+00  0.47849784E+00  0.47721290E+00  0.47594688E+00
  0.47470087E+00  0.47347579E+00  0.47227244E+00  0.47109144E+00  0.46993324E+00
  0.46879814E+00  0.46768626E+00  0.46659755E+00  0.46553180E+00  0.46448864E+00
  0.46346753E+00  0.46246778E+00  0.46148855E+00  0.46052886E+00  0.45958760E+00
  0.45866356E+00  0.45775541E+00  0.45686173E+00  0.45598102E+00  0.45511172E+00
  0.45425222E+00  0.45340086E+00  0.45255598E+00  0.45171589E+00  0.45087890E+00
  0.45004337E+00  0.44920767E+00  0.44837022E+00  0.44752950E+00  0.44668408E+00
  0.44583260E+00  0.44497381E+00  0.44410656E+00  0.44322981E+00  0.44234267E+00
  0.44144435E+00  0.44053421E+00  0.43961175E+00  0.43867658E+00  0.43772851E+00
  0.43676743E+00  0.43579342E+00  0.43480668E+00  0.43380754E+00  0.43279649E+00
  0.43177412E+00  0.43074117E+00  0.42969846E+00  0.42864694E+00  0.42758764E+00
  0.42652167E+00  0.42545023E+00  0.42437455E+00  0.42329593E+00  0.42221571E+00
  0.42113524E+00  0.42005590E+00  0.41897906E+00  0.41790608E+00  0.41683830E+00
  0.41577704E+00  0.41472354E+00  0.41367901E+00  0.41264458E+00  0.41162130E+00
  0.41061014E+00  0.40961197E+00  0.40862756E+00  0.40765759E+00  0.40670260E+00
  0.40576306E+00  0.40483927E+00  0.40393147E+00  0.40303974E+00  0.40216406E+00
  0.40130428E+00  0.40046015E+00  0.39963130E+00  0.39881725E+00  0.39801743E+00
  0.39723115E+00  0.39645767E+00  0.39569615E+00  0.39494567E+00  0.39420527E+00
  0.39347393E+00  0.39275058E+00  0.39203413E+00  0.39132345E+00  0.39061742E+00
  0.38991490E+00  0.38921475E+00  0.38851586E+00  0.38781715E+00  0.38711756E+00
  0.38641610E+00  0.38571181E+00  0.38500381E+00  0.38429128E+00  0.38357349E+00
  0.38284977E+00  0.38211954E+00  0.38138233E+00  0.38063773E+00  0.37988545E+00
  0.37912527E+00  0.37835710E+00  0.37758092E+00  0.37679680E+00  0.37600493E+00
  0.37520557E+00  0.37439908E+00  0.37358589E+00  0.37276651E+00  0.37194153E+00
  0.37111160E+00  0.37027740E+00  0.36943970E+00  0.36859928E+00  0.36775698E+00
  0.36691363E+00  0.36607011E+00  0.36522731E+00  0.36438610E+00  0.36354736E+00
  0.36271194E+00  0.36188070E+00  0.36105443E+00  0.36023390E+00  0.35941985E+00
  0.35861293E+00  0.35781376E+00  0.35702290E+00  0.35624083E+00  0.35546798E+00
  0.35470468E+00  0.35395122E+00  0.35320780E+00  0.35247453E+00  0.35175147E+00
  0.35103858E+00  0.35033575E+00  0.34964282E+00  0.34895951E+00  0.34828552E+00
 gradient corrections used for XC
           5
 core charge-density (partial)
  0.33274867E+01  0.33262367E+01  0.33224895E+01  0.33162532E+01  0.33075414E+01
  0.32963730E+01  0.32827721E+01  0.32667681E+01  0.32483956E+01  0.32276939E+01
  0.32047073E+01  0.31794846E+01  0.31520793E+01  0.31225490E+01  0.30909555E+01
  0.30573645E+01  0.30218451E+01  0.29844701E+01  0.29453153E+01  0.29044595E+01
  0.28619839E+01  0.28179724E+01  0.27725108E+01  0.27256866E+01  0.26775891E+01
  0.26283088E+01  0.25779370E+01  0.25265659E+01  0.24742880E+01  0.24211962E+01
  0.23673830E+01  0.23129408E+01  0.22579612E+01  0.22025352E+01  0.21467525E+01
  0.20907015E+01  0.20344694E+01  0.19781414E+01  0.19218007E+01  0.18655289E+01
  0.18094048E+01  0.17535051E+01  0.16979040E+01  0.16426729E+01  0.15878804E+01
  0.15335923E+01  0.14798714E+01  0.14267774E+01  0.13743669E+01  0.13226933E+01
  0.12718070E+01  0.12217547E+01  0.11725803E+01  0.11243243E+01  0.10770237E+01
  0.10307126E+01  0.98542167E+00  0.94117849E+00  0.89800743E+00  0.85592984E+00
  0.81496397E+00  0.77512517E+00  0.73642586E+00  0.69887565E+00  0.66248145E+00
  0.62724751E+00  0.59317554E+00  0.56026482E+00  0.52851228E+00  0.49791261E+00
  0.46845837E+00  0.44014010E+00  0.41294643E+00  0.38686420E+00  0.36187855E+00
  0.33797304E+00  0.31512978E+00  0.29332953E+00  0.27255178E+00  0.25277492E+00
  0.23397629E+00  0.21613234E+00  0.19921866E+00  0.18321015E+00  0.16808110E+00
  0.15380525E+00  0.14035593E+00  0.12770612E+00  0.11582855E+00  0.10469577E+00
  0.94280252E-01  0.84554423E-01  0.75490783E-01  0.67061945E-01  0.59240709E-01
  0.52000121E-01  0.45313526E-01  0.39154626E-01  0.33497525E-01  0.28316777E-01
  0.23587425E-01  0.19285042E-01  0.15385763E-01  0.11866316E-01  0.87040527E-02
  0.58769677E-02  0.33637236E-02  0.11436669E-02 -0.80315632E-03 -0.24959888E-02
 -0.39533528E-02 -0.51930435E-02 -0.62321250E-02 -0.70869290E-02 -0.77730549E-02
 -0.83053734E-02 -0.86980309E-02 -0.89644564E-02 -0.91173701E-02 -0.91687940E-02
 -0.91300631E-02 -0.90118389E-02 -0.88241240E-02 -0.85762775E-02 -0.82770319E-02
 -0.79345106E-02 -0.75562462E-02 -0.71492004E-02 -0.67197826E-02 -0.62738716E-02
 -0.58168351E-02 -0.53535515E-02 -0.48884310E-02 -0.44254370E-02 -0.39681074E-02
 -0.35195768E-02 -0.30825969E-02 -0.26595589E-02 -0.22525134E-02 -0.18631924E-02
 -0.14930287E-02 -0.11431768E-02 -0.81453206E-03 -0.50775019E-03 -0.22326586E-03
  0.38689126E-04  0.27806821E-03  0.49499310E-03  0.68973735E-03  0.86271067E-03
  0.10144438E-02  0.11455740E-02  0.12568315E-02  0.13490264E-02  0.14230361E-02
  0.14797939E-02  0.15202778E-02  0.15455003E-02  0.15564989E-02  0.15543269E-02
  0.15400452E-02  0.15147148E-02  0.14793897E-02  0.14351106E-02  0.13828987E-02
  0.13237514E-02  0.12586366E-02  0.11884894E-02  0.11142084E-02  0.10366522E-02
  0.95663754E-03  0.87493646E-03  0.79227513E-03  0.70933233E-03  0.62673864E-03
  0.54507588E-03  0.46487689E-03  0.38662570E-03  0.31075790E-03  0.23766132E-03
  0.16767692E-03  0.10109999E-03  0.38181400E-04 -0.20870836E-04 -0.75889924E-04
 -0.12674848E-03 -0.17335664E-03 -0.21566002E-03 -0.25363764E-03 -0.28729978E-03
 -0.31668582E-03 -0.34186194E-03 -0.36291895E-03 -0.37997004E-03 -0.39314853E-03
 -0.40260569E-03 -0.40850857E-03 -0.41103788E-03 -0.41038593E-03 -0.40675461E-03
 -0.40035346E-03 -0.39139783E-03 -0.38010709E-03 -0.36670295E-03 -0.35140788E-03
 -0.33444359E-03 -0.31602964E-03 -0.29638213E-03 -0.27571255E-03 -0.25422660E-03
 -0.23212329E-03 -0.20959398E-03 -0.18682163E-03 -0.16398008E-03 -0.14123350E-03
 -0.11873585E-03 -0.96630510E-04 -0.75049946E-04 -0.54115489E-04 -0.33937192E-04
 -0.14613760E-04  0.37674419E-05  0.21130307E-04  0.37409849E-04  0.52551991E-04
  0.66513311E-04  0.79260723E-04  0.90771123E-04  0.10103098E-03  0.11003592E-03
  0.11779020E-03  0.12430628E-03  0.12960424E-03  0.13371128E-03  0.13666112E-03
  0.13849348E-03  0.13925345E-03  0.13899097E-03  0.13776021E-03  0.13561901E-03
  0.13262830E-03  0.12885159E-03  0.12435437E-03  0.11920361E-03  0.11346726E-03
  0.10721373E-03  0.10051146E-03  0.93428451E-04  0.86031856E-04  0.78387585E-04
  0.70559945E-04  0.62611300E-04  0.54601767E-04  0.46588936E-04  0.38627625E-04
  0.30769658E-04  0.23063676E-04  0.15554980E-04  0.82853988E-05  0.12931824E-05
 -0.53870698E-05 -0.11724460E-04 -0.17691815E-04 -0.23265686E-04 -0.28426326E-04
 -0.33157640E-04 -0.37447123E-04 -0.41285769E-04 -0.44667970E-04 -0.47591394E-04
 -0.50056852E-04 -0.52068145E-04 -0.53631906E-04 -0.54757426E-04 -0.55456479E-04
 -0.55743129E-04 -0.55633536E-04 -0.55145765E-04 -0.54299578E-04 -0.53116233E-04
 -0.51618282E-04 -0.49829370E-04 -0.47774030E-04 -0.45477492E-04 -0.42965486E-04
 -0.40264057E-04 -0.37399380E-04 -0.34397593E-04 -0.31284621E-04 -0.28086027E-04
 -0.24826857E-04 -0.21531503E-04 -0.18223573E-04 -0.14925774E-04 -0.11659798E-04
 -0.84462344E-05 -0.53044736E-05 -0.22526383E-05  0.69248278E-06  0.35154880E-05
  0.62024046E-05  0.87407201E-05  0.11119403E-04  0.13328914E-04  0.15361208E-04
  0.17209722E-04  0.18869361E-04  0.20336471E-04  0.21608805E-04  0.22685482E-04
  0.23566937E-04  0.24254866E-04  0.24752168E-04  0.25062877E-04  0.25192093E-04
  0.25145906E-04  0.24931319E-04  0.24556169E-04  0.24029043E-04  0.23359194E-04
  0.22556458E-04  0.21631165E-04  0.20594056E-04  0.19456200E-04  0.18228906E-04
  0.16923647E-04  0.15551975E-04  0.14125446E-04  0.12655548E-04  0.11153625E-04
  0.96308119E-05  0.80979732E-05  0.65656387E-05  0.50439513E-05  0.35426149E-05
  0.20708484E-05  0.63734423E-06 -0.74976832E-06 -0.20829549E-05 -0.33553031E-05
 -0.45605442E-05 -0.56930704E-05 -0.67479474E-05 -0.77209216E-05 -0.86084237E-05
 -0.94075668E-05 -0.10116141E-04 -0.10732605E-04 -0.11256070E-04 -0.11686284E-04
 -0.12023612E-04 -0.12269011E-04 -0.12424003E-04 -0.12490646E-04 -0.12471504E-04
 -0.12369612E-04 -0.12188438E-04 -0.11931849E-04 -0.11604074E-04 -0.11209658E-04
 -0.10753430E-04 -0.10240457E-04 -0.96760071E-05 -0.90655050E-05 -0.84144956E-05
 -0.77286028E-05 -0.70134908E-05 -0.62748270E-05 -0.55182449E-05 -0.47493097E-05
 -0.39734845E-05 -0.31960989E-05 -0.24223189E-05 -0.16571194E-05 -0.90525848E-06
 -0.17125373E-06  0.54063861E-06  0.12264427E-05  0.18824793E-05  0.25053802E-05
  0.30920997E-05  0.36399233E-05  0.41464756E-05  0.46097237E-05  0.50279800E-05
  0.53999019E-05  0.57244897E-05  0.60010817E-05  0.62293485E-05  0.64092845E-05
  0.65411975E-05  0.66256975E-05  0.66636831E-05  0.66563269E-05  0.66050594E-05
  0.65115522E-05  0.63776995E-05  0.62055996E-05  0.59975349E-05  0.57559516E-05
  0.54834393E-05  0.51827102E-05  0.48565774E-05  0.45079345E-05  0.41397344E-05
  0.37549684E-05  0.33566462E-05  0.29477759E-05  0.25313450E-05  0.21103015E-05
  0.16875364E-05  0.12658670E-05  0.84802090E-06  0.43662098E-06  0.34172001E-07
 -0.35695217E-06 -0.73451991E-06 -0.10964520E-05 -0.14408304E-05 -0.17659062E-05
 -0.20701055E-05 -0.23520347E-05 -0.26104842E-05 -0.28444309E-05 -0.30530394E-05
 -0.32356618E-05 -0.33918369E-05 -0.35212875E-05 -0.36239172E-05 -0.36998057E-05
 -0.37492036E-05 -0.37725255E-05 -0.37703434E-05 -0.37433782E-05 -0.36924909E-05
 -0.36186734E-05 -0.35230386E-05 -0.34068093E-05 -0.32713082E-05 -0.31179460E-05
 -0.29482103E-05 -0.27636538E-05 -0.25658826E-05 -0.23565446E-05 -0.21373177E-05
 -0.19098980E-05 -0.16759889E-05 -0.14372899E-05 -0.11954853E-05 -0.95223466E-06
 -0.70916218E-06 -0.46784755E-06 -0.22981699E-06  0.34651522E-08  0.23060405E-06
  0.45028154E-06  0.66126247E-06  0.86240046E-06  0.10526429E-05  0.12310351E-05
  0.13967239E-05  0.15489607E-05  0.16871031E-05  0.18106163E-05  0.19190742E-05
  0.20121587E-05  0.20896593E-05  0.21514714E-05  0.21975945E-05  0.22281293E-05
  0.22432747E-05  0.22433237E-05  0.22286594E-05  0.21997499E-05  0.21571436E-05
  0.21014632E-05  0.20334001E-05  0.19537082E-05  0.18631974E-05  0.17627269E-05
  0.16531990E-05  0.15355514E-05  0.14107511E-05  0.12797870E-05  0.11436632E-05
  0.10033921E-05  0.85998790E-06  0.71445983E-06  0.56780597E-06  0.42100708E-06
  0.27502077E-06  0.13077593E-06 -0.10832501E-07 -0.14894845E-06 -0.28275922E-06
 -0.41149962E-06 -0.53445576E-06 -0.65096831E-06 -0.76043542E-06 -0.86231521E-06
 -0.95612773E-06 -0.10414566E-05 -0.11179501E-05 -0.11853220E-05 -0.12433514E-05
 -0.12918833E-05 -0.13308273E-05 -0.13601572E-05 -0.13799091E-05 -0.13901803E-05
 -0.13911267E-05 -0.13829606E-05 -0.13659484E-05 -0.13404068E-05 -0.13067005E-05
 -0.12652379E-05 -0.12164681E-05 -0.11608769E-05 -0.10989826E-05 -0.10313322E-05
 -0.95849714E-06 -0.88106911E-06 -0.79965570E-06 -0.71487625E-06 -0.62735757E-06
 -0.53772976E-06 -0.44662211E-06 -0.35465909E-06 -0.26245646E-06 -0.17061751E-06
 -0.79729541E-07  0.96395991E-08  0.96944665E-07  0.18166601E-06  0.26331232E-06
  0.34142313E-06  0.41557109E-06  0.48536391E-06  0.55044614E-06  0.61050059E-06
  0.66524950E-06  0.71445546E-06  0.75792202E-06  0.79549404E-06  0.82705778E-06
  0.85254067E-06  0.87191092E-06  0.88517680E-06  0.89238570E-06  0.89362297E-06
  0.88901056E-06  0.87870541E-06  0.86289772E-06  0.84180896E-06  0.81568983E-06
  0.78481795E-06  0.74949558E-06  0.71004710E-06  0.66681646E-06  0.62016457E-06
  0.57046664E-06  0.51810944E-06  0.46348858E-06  0.40700584E-06  0.34906638E-06
  0.29007617E-06  0.23043929E-06  0.17055546E-06  0.11081750E-06  0.51609036E-07
 -0.66978264E-08 -0.63744593E-07 -0.11918841E-06 -0.17270393E-06 -0.22398502E-06
 -0.27274630E-06 -0.31872460E-06 -0.36168009E-06 -0.40139741E-06 -0.43768647E-06
 -0.47038321E-06 -0.49935006E-06 -0.52447628E-06 -0.54567815E-06 -0.56289890E-06
 -0.57610854E-06 -0.58530352E-06 -0.59050618E-06 -0.59176410E-06 -0.58914927E-06
 -0.58275713E-06 -0.57270548E-06 -0.55913327E-06 -0.54219931E-06 -0.52208082E-06
 -0.49897191E-06 -0.47308204E-06 -0.44463436E-06 -0.41386396E-06 -0.38101620E-06
 -0.34634488E-06 -0.31011045E-06 -0.27257824E-06 -0.23401664E-06 -0.19469533E-06
 -0.15488353E-06 -0.11484828E-06 -0.74852791E-07 -0.35154801E-07  0.39949265E-08
  0.42354093E-07  0.79690241E-07  0.11578205E-06  0.15042054E-06  0.18341015E-06
  0.21456975E-06  0.24373350E-06  0.27075163E-06  0.29549106E-06  0.31783595E-06
  0.33768812E-06  0.35496728E-06  0.36961126E-06  0.38157603E-06  0.39083564E-06
  0.39738201E-06  0.40122470E-06  0.40239043E-06  0.40092265E-06  0.39688091E-06
  0.39034018E-06  0.38139006E-06  0.37013397E-06  0.35668815E-06  0.34118078E-06
  0.32375081E-06  0.30454699E-06  0.28372664E-06  0.26145453E-06  0.23790165E-06
  0.21324405E-06  0.18766157E-06  0.16133665E-06  0.13445309E-06  0.10719486E-06
  0.79744914E-07  0.52284060E-07  0.24989812E-07 -0.19646697E-08 -0.28411608E-07
 -0.54189582E-07 -0.79144445E-07 -0.10313018E-06 -0.12600967E-06 -0.14765543E-06
 -0.16795024E-06 -0.18678771E-06 -0.20407275E-06 -0.21972198E-06 -0.23366407E-06
 -0.24583993E-06 -0.25620293E-06 -0.26471889E-06 -0.27136617E-06 -0.27613549E-06
 -0.27902984E-06 -0.28006419E-06 -0.27926519E-06 -0.27667082E-06 -0.27232989E-06
 -0.26630158E-06 -0.25865485E-06 -0.24946784E-06 -0.23882718E-06 -0.22682733E-06
 -0.21356978E-06 -0.19916232E-06 -0.18371821E-06 -0.16735539E-06 -0.15019561E-06
 -0.13236358E-06 -0.11398617E-06 -0.95191495E-07 -0.76108120E-07 -0.56864208E-07
 -0.37586712E-07 -0.18400584E-07  0.57199159E-09  0.19212330E-07  0.37405946E-07
  0.55043214E-07  0.72019981E-07  0.88238144E-07  0.10360617E-06  0.11803958E-06
  0.13146133E-06  0.14380222E-06  0.15500120E-06  0.16500558E-06  0.17377125E-06
  0.18126284E-06  0.18745373E-06  0.19232616E-06  0.19587110E-06  0.19808822E-06
  0.19898574E-06  0.19858021E-06  0.19689625E-06  0.19396632E-06  0.18983030E-06
  0.18453516E-06  0.17813453E-06  0.17068823E-06  0.16226180E-06  0.15292598E-06
  0.14275617E-06  0.13183184E-06  0.12023602E-06  0.10805464E-06  0.95375978E-07
  0.82290019E-07  0.68887886E-07  0.55261216E-07  0.41501571E-07  0.27699852E-07
  0.13945730E-07  0.32709054E-09 -0.13070500E-07 -0.26164301E-07 -0.38874885E-07
 -0.51126587E-07 -0.62847930E-07 -0.73972015E-07 -0.84436870E-07 -0.94185770E-07
 -0.10316751E-06 -0.11133666E-06 -0.11865373E-06 -0.12508534E-06 -0.13060437E-06
 -0.13518997E-06 -0.13882764E-06 -0.14150919E-06 -0.14323272E-06 -0.14400249E-06
 -0.14382884E-06 -0.14272800E-06 -0.14072189E-06 -0.13783789E-06 -0.13410859E-06
 -0.12957149E-06 -0.12426868E-06 -0.11824648E-06 -0.11155513E-06 -0.10424833E-06
 -0.96382914E-07 -0.88018386E-07 -0.79216521E-07 -0.70040927E-07 -0.60556609E-07
 -0.50829528E-07 -0.40926172E-07 -0.30913112E-07 -0.20856582E-07 -0.10822055E-07
 -0.87384205E-09  0.89253090E-08  0.18514585E-07  0.27835469E-07  0.36832078E-07
  0.45451481E-07  0.53643991E-07  0.61363433E-07  0.68567385E-07  0.75217393E-07
  0.81279152E-07  0.86722666E-07  0.91522371E-07  0.95657231E-07  0.99110801E-07
  0.10187127E-06  0.10393145E-06  0.10528876E-06  0.10594519E-06  0.10590718E-06
  0.10518554E-06  0.10379531E-06  0.10175558E-06  0.99089337E-07  0.95823240E-07
  0.91987390E-07  0.87615096E-07  0.82742606E-07  0.77408837E-07  0.71655077E-07
  0.65524693E-07  0.59062819E-07  0.52316037E-07  0.45332064E-07  0.38159422E-07
  0.30847121E-07  0.23444335E-07  0.16000086E-07  0.85629319E-08  0.11806613E-08
 -0.60999989E-08 -0.13233668E-07 -0.20176582E-07 -0.26886850E-07 -0.33324694E-07
 -0.39452674E-07 -0.45235891E-07 -0.50642174E-07 -0.55642246E-07 -0.60209869E-07
 -0.64321966E-07 -0.67958724E-07 -0.71103673E-07 -0.73743741E-07 -0.75869289E-07
 -0.77474122E-07 -0.78555480E-07 -0.79114002E-07 -0.79153678E-07 -0.78681770E-07
 -0.77708718E-07 -0.76248033E-07 -0.74316156E-07 -0.71932322E-07 -0.69118385E-07
 -0.65898649E-07 -0.62299672E-07 -0.58350068E-07 -0.54080288E-07 -0.49522404E-07
 -0.44709879E-07 -0.39677330E-07 -0.34460294E-07 -0.29094986E-07 -0.23618054E-07
 -0.18066343E-07 -0.12476654E-07 -0.68855085E-08 -0.13289201E-08  0.41578306E-08
  0.95404104E-08  0.14785640E-07  0.19861691E-07  0.24738269E-07  0.29386789E-07
  0.33780529E-07  0.37894783E-07  0.41706982E-07  0.45196814E-07  0.48346322E-07
  0.51139985E-07  0.53564782E-07  0.55610244E-07  0.57268482E-07  0.58534203E-07
  0.59404708E-07  0.59879873E-07  0.59962114E-07  0.59656335E-07  0.58969865E-07
  0.57912375E-07  0.56495784E-07  0.54734153E-07  0.52643564E-07  0.50241990E-07
  0.47549155E-07  0.44586378E-07  0.41376424E-07  0.37943329E-07  0.34312235E-07
  0.30509211E-07  0.26561074E-07  0.22495208E-07  0.18339378E-07  0.14121551E-07
  0.98697104E-08  0.56116799E-08  0.13749448E-08 -0.28135183E-08 -0.69274073E-08
 -0.10941254E-07 -0.14830577E-07 -0.18572023E-07 -0.22143503E-07 -0.25524315E-07
 -0.28695262E-07 -0.31638750E-07 -0.34338879E-07 -0.36781528E-07 -0.38954416E-07
 -0.40847156E-07 -0.42451302E-07 -0.43760369E-07 -0.44769856E-07 -0.45477244E-07
 -0.45881986E-07 -0.45985485E-07 -0.45791061E-07 -0.45303902E-07 -0.44531006E-07
 -0.43481112E-07 -0.42164625E-07 -0.40593522E-07 -0.38781258E-07 -0.36742657E-07
 -0.34493805E-07 -0.32051924E-07 -0.29435250E-07 -0.26662902E-07 -0.23754750E-07
 -0.20731276E-07 -0.17613433E-07 -0.14422509E-07 -0.11179983E-07 -0.79073861E-08
 -0.46261630E-08 -0.13575354E-08  0.18776308E-08  0.50589548E-08  0.81666649E-08
  0.11181717E-07  0.14085909E-07  0.16861983E-07  0.19493727E-07  0.21966063E-07
  0.24265132E-07  0.26378364E-07  0.28294542E-07  0.30003859E-07  0.31497961E-07
  0.32769983E-07  0.33814571E-07  0.34627902E-07  0.35207685E-07  0.35553157E-07
  0.35665068E-07  0.35545661E-07  0.35198632E-07  0.34629093E-07  0.33843520E-07
  0.32849692E-07  0.31656628E-07  0.30274514E-07  0.28714617E-07  0.26989207E-07
  0.25111460E-07  0.23095365E-07  0.20955625E-07  0.18707550E-07  0.16366955E-07
  0.13950052E-07  0.11473337E-07  0.89534887E-08  0.64072508E-08  0.38513297E-08
  0.13022856E-08 -0.12235711E-08 -0.37102815E-08 -0.61423359E-08 -0.85047675E-08
 -0.10783242E-07 -0.12964141E-07 -0.15034640E-07 -0.16982783E-07 -0.18797545E-07
 -0.20468895E-07 -0.21987844E-07 -0.23346492E-07 -0.24538067E-07 -0.25556949E-07
 -0.26398698E-07 -0.27060066E-07 -0.27538999E-07 -0.27834643E-07 -0.27947329E-07
 -0.27878558E-07 -0.27630978E-07 -0.27208354E-07 -0.26615527E-07 -0.25858373E-07
 -0.24943749E-07 -0.23879444E-07 -0.22674110E-07 -0.21337201E-07 -0.19878902E-07
 -0.18310053E-07 -0.16642075E-07 -0.14886885E-07 -0.13056819E-07 -0.11164544E-07
 -0.92229744E-08 -0.72451875E-08 -0.52443352E-08 -0.32335603E-08 -0.12259123E-08
 kinetic energy density (partial)
  0.30069453E+03  0.30058266E+03  0.30024730E+03  0.29968915E+03  0.29890942E+03
  0.29790978E+03  0.29669235E+03  0.29525974E+03  0.29361498E+03  0.29176155E+03
  0.28970336E+03  0.28744473E+03  0.28499038E+03  0.28234539E+03  0.27951524E+03
  0.27650572E+03  0.27332296E+03  0.26997338E+03  0.26646372E+03  0.26280092E+03
  0.25899221E+03  0.25504501E+03  0.25096692E+03  0.24676573E+03  0.24244934E+03
  0.23802580E+03  0.23350324E+03  0.22888984E+03  0.22419384E+03  0.21942351E+03
  0.21458710E+03  0.20969284E+03  0.20474892E+03  0.19976345E+03  0.19474447E+03
  0.18969988E+03  0.18463749E+03  0.17956492E+03  0.17448967E+03  0.16941903E+03
  0.16436011E+03  0.15931981E+03  0.15430480E+03  0.14932153E+03  0.14437620E+03
  0.13947476E+03  0.13462288E+03  0.12982600E+03  0.12508923E+03  0.12041746E+03
  0.11581526E+03  0.11128690E+03  0.10683640E+03  0.10246747E+03  0.98183519E+02
  0.93987683E+02  0.89882804E+02  0.85871440E+02  0.81955869E+02  0.78138090E+02
  0.74419832E+02  0.70802554E+02  0.67287458E+02  0.63875490E+02  0.60567351E+02
  0.57363503E+02  0.54264177E+02  0.51269382E+02  0.48378916E+02  0.45592371E+02
  0.42909144E+02  0.40328450E+02  0.37849326E+02  0.35470646E+02  0.33191127E+02
  0.31009342E+02  0.28923727E+02  0.26932596E+02  0.25034143E+02  0.23226460E+02
  0.21507541E+02  0.19875295E+02  0.18327552E+02  0.16862075E+02  0.15476569E+02
  0.14168685E+02  0.12936036E+02  0.11776198E+02  0.10686723E+02  0.96651429E+01
  0.87089794E+01  0.78157491E+01  0.69829711E+01  0.62081728E+01  0.54888963E+01
  0.48227032E+01  0.42071808E+01  0.36399460E+01  0.31186509E+01  0.26409862E+01
  0.22046855E+01  0.18075287E+01  0.14473456E+01  0.11220184E+01  0.82948425E+00
  0.56773819E+00  0.33483458E+00  0.12888904E+00 -0.51920075E-01 -0.20935052E+00
 -0.34509520E+00 -0.46078152E+00 -0.55797089E+00 -0.63815851E+00 -0.70277336E+00
 -0.75317837E+00 -0.79067081E+00 -0.81648282E+00 -0.83178216E+00 -0.83767306E+00
 -0.83519722E+00 -0.82533503E+00 -0.80900675E+00 -0.78707396E+00 -0.76034102E+00
 -0.72955663E+00 -0.69541550E+00 -0.65856007E+00 -0.61958227E+00 -0.57902535E+00
 -0.53738578E+00 -0.49511512E+00 -0.45262198E+00 -0.41027392E+00 -0.36839945E+00
 -0.32728995E+00 -0.28720163E+00 -0.24835748E+00 -0.21094918E+00 -0.17513899E+00
 -0.14106163E+00 -0.10882613E+00 -0.78517601E-01 -0.50199014E-01 -0.23912904E-01
  0.31695641E-03  0.22483952E-01  0.42597060E-01  0.60679343E-01  0.76766510E-01
  0.90905521E-01  0.10315327E+00  0.11357530E+00  0.12224465E+00  0.12924064E+00
  0.13464788E+00  0.13855517E+00  0.14105462E+00  0.14224075E+00  0.14220961E+00
  0.14105809E+00  0.13888316E+00  0.13578123E+00  0.13184759E+00  0.12717584E+00
  0.12185742E+00  0.11598118E+00  0.10963299E+00  0.10289544E+00  0.95847506E-01
  0.88564357E-01  0.81117121E-01  0.73572741E-01  0.65993849E-01  0.58438682E-01
  0.50961025E-01  0.43610193E-01  0.36431037E-01  0.29463975E-01  0.22745054E-01
  0.16306027E-01  0.10174458E-01  0.43738376E-02 -0.10762795E-02 -0.61601244E-02
 -0.10865551E-01 -0.15183865E-01 -0.19109638E-01 -0.22640519E-01 -0.25777040E-01
 -0.28522416E-01 -0.30882341E-01 -0.32864782E-01 -0.34479783E-01 -0.35739249E-01
 -0.36656757E-01 -0.37247348E-01 -0.37527340E-01 -0.37514133E-01 -0.37226030E-01
 -0.36682057E-01 -0.35901792E-01 -0.34905205E-01 -0.33712500E-01 -0.32343971E-01
 -0.30819861E-01 -0.29160239E-01 -0.27384871E-01 -0.25513119E-01 -0.23563834E-01
 -0.21555267E-01 -0.19504983E-01 -0.17429793E-01 -0.15345684E-01 -0.13267771E-01
 -0.11210243E-01 -0.91863284E-02 -0.72082680E-02 -0.52872885E-02 -0.34335907E-02
 -0.16563421E-02  0.36323708E-04  0.16373005E-02  0.31404973E-02  0.45408206E-02
  0.58341512E-02  0.70173164E-02  0.80880582E-02  0.90449966E-02  0.98875908E-02
  0.10616096E-01  0.11231520E-01  0.11735572E-01  0.12130617E-01  0.12419627E-01
  0.12606121E-01  0.12694123E-01  0.12688103E-01  0.12592926E-01  0.12413800E-01
  0.12156224E-01  0.11825938E-01  0.11428873E-01  0.10971102E-01  0.10458796E-01
  0.98981744E-02  0.92954674E-02  0.86568725E-02  0.79885166E-02  0.72964201E-02
  0.65864634E-02  0.58643560E-02  0.51356077E-02  0.44055034E-02  0.36790800E-02
  0.29611059E-02  0.22560634E-02  0.15681335E-02  0.90118422E-03  0.25875982E-03
 -0.35592588E-03 -0.93999465E-03 -0.14909064E-02 -0.20064595E-02 -0.24847889E-02
 -0.29243628E-02 -0.33239761E-02 -0.36827436E-02 -0.40000906E-02 -0.42757422E-02
 -0.45097115E-02 -0.47022859E-02 -0.48540131E-02 -0.49656855E-02 -0.50383241E-02
 -0.50731616E-02 -0.50716249E-02 -0.50353173E-02 -0.49660002E-02 -0.48655750E-02
 -0.47360644E-02 -0.45795939E-02 -0.43983743E-02 -0.41946830E-02 -0.39708469E-02
 -0.37292251E-02 -0.34721925E-02 -0.32021237E-02 -0.29213779E-02 -0.26322843E-02
 -0.23371285E-02 -0.20381397E-02 -0.17374785E-02 -0.14372264E-02 -0.11393752E-02
 -0.84581866E-03 -0.55834365E-03 -0.27862373E-03 -0.82128488E-05  0.25145965E-03
  0.49909309E-03  0.73351847E-03  0.95370068E-03  0.11587396E-02  0.13478705E-02
  0.15204633E-02  0.16760214E-02  0.18141793E-02  0.19347000E-02  0.20374710E-02
  0.21225004E-02  0.21899119E-02  0.22399394E-02  0.22729214E-02  0.22892946E-02
  0.22895871E-02  0.22744119E-02  0.22444590E-02  0.22004887E-02  0.21433236E-02
  0.20738411E-02  0.19929655E-02  0.19016605E-02  0.18009215E-02  0.16917679E-02
  0.15752357E-02  0.14523702E-02  0.13242193E-02  0.11918261E-02  0.10562228E-02
  0.91842459E-03  0.77942335E-03  0.64018254E-03  0.50163192E-03  0.36466284E-03
  0.23012399E-03  0.98817465E-04 -0.28504622E-04 -0.15114318E-03 -0.26845469E-03
 -0.37985331E-03 -0.48481255E-03 -0.58286654E-03 -0.67361082E-03 -0.75670277E-03
 -0.83186157E-03 -0.89886785E-03 -0.95756290E-03 -0.10078476E-02 -0.10496808E-02
 -0.10830779E-02 -0.11081083E-02 -0.11248936E-02 -0.11336046E-02 -0.11344587E-02
 -0.11277168E-02 -0.11136805E-02 -0.10926881E-02 -0.10651117E-02 -0.10313538E-02
 -0.99184302E-03 -0.94703117E-03 -0.89738919E-03 -0.84340364E-03 -0.78557302E-03
 -0.72440417E-03 -0.66040880E-03 -0.59410002E-03 -0.52598902E-03 -0.45658185E-03
 -0.38637641E-03 -0.31585946E-03 -0.24550394E-03 -0.17576634E-03 -0.10708436E-03
 -0.39874727E-04  0.25468832E-04  0.88577320E-04  0.14910805E-03  0.20674599E-03
  0.26120487E-03  0.31222814E-03  0.35958958E-03  0.40309388E-03  0.44257681E-03
  0.47790538E-03  0.50897762E-03  0.53572232E-03  0.55809846E-03  0.57609459E-03
  0.58972795E-03  0.59904344E-03  0.60411253E-03  0.60503194E-03  0.60192225E-03
  0.59492640E-03  0.58420810E-03  0.56995012E-03  0.55235258E-03  0.53163109E-03
  0.50801495E-03  0.48174525E-03  0.45307297E-03  0.42225709E-03  0.38956266E-03
  0.35525901E-03  0.31961778E-03  0.28291123E-03  0.24541040E-03  0.20738347E-03
  0.16909411E-03  0.13079990E-03  0.92750941E-04  0.55188391E-04  0.18343245E-04
 -0.17564862E-04 -0.52328730E-04 -0.85754545E-04 -0.11766274E-03 -0.14788870E-03
 -0.17628345E-03 -0.20271405E-03 -0.22706408E-03 -0.24923387E-03 -0.26914064E-03
 -0.28671857E-03 -0.30191874E-03 -0.31470894E-03 -0.32507344E-03 -0.33301257E-03
 -0.33854231E-03 -0.34169375E-03 -0.34251241E-03 -0.34105763E-03 -0.33740173E-03
 -0.33162923E-03 -0.32383596E-03 -0.31412812E-03 -0.30262135E-03 -0.28943969E-03
 -0.27471459E-03 -0.25858384E-03 -0.24119054E-03 -0.22268202E-03 -0.20320882E-03
 -0.18292359E-03 -0.16198009E-03 -0.14053219E-03 -0.11873285E-03 -0.96733202E-04
 -0.74681600E-04 -0.52722780E-04 -0.30997016E-04 -0.96393468E-05  0.11221145E-04
  0.31462000E-04  0.50967988E-04  0.69631652E-04  0.87353786E-04  0.10404385E-03
  0.11962034E-03  0.13401103E-03  0.14715323E-03  0.15899391E-03  0.16948981E-03
  0.17860745E-03  0.18632306E-03  0.19262256E-03  0.19750131E-03  0.20096394E-03
  0.20302409E-03  0.20370408E-03  0.20303454E-03  0.20105399E-03  0.19780844E-03
  0.19335085E-03  0.18774065E-03  0.18104320E-03  0.17332918E-03  0.16467406E-03
  0.15515747E-03  0.14486258E-03  0.13387549E-03  0.12228463E-03  0.11018009E-03
  0.97653041E-04  0.84795109E-04  0.71697787E-04  0.58451852E-04  0.45146803E-04
  0.31870319E-04  0.18707750E-04  0.57416230E-05 -0.69488114E-05 -0.19288006E-04
 -0.31204508E-04 -0.42631316E-04 -0.53506201E-04 -0.63771985E-04 -0.73376785E-04
 -0.82274217E-04 -0.90423557E-04 -0.97789869E-04 -0.10434409E-03 -0.11006305E-03
 -0.11492954E-03 -0.11893221E-03 -0.12206554E-03 -0.12432973E-03 -0.12573056E-03
 -0.12627922E-03 -0.12599214E-03 -0.12489070E-03 -0.12300103E-03 -0.12035372E-03
 -0.11698351E-03 -0.11292897E-03 -0.10823218E-03 -0.10293837E-03 -0.97095564E-04
 -0.90754191E-04 -0.83966731E-04 -0.76787319E-04 -0.69271364E-04 -0.61475169E-04
 -0.53455548E-04 -0.45269452E-04 -0.36973604E-04 -0.28624143E-04 -0.20276275E-04
 -0.11983946E-04 -0.37995236E-05  0.42264983E-05  0.12045783E-04  0.19612407E-04
  0.26883103E-04  0.33817473E-04  0.40378183E-04  0.46531132E-04  0.52245597E-04
  0.57494356E-04  0.62253783E-04  0.66503914E-04  0.70228503E-04  0.73415032E-04
  0.76054719E-04  0.78142483E-04  0.79676901E-04  0.80660135E-04  0.81097837E-04
  0.80999040E-04  0.80376025E-04  0.79244172E-04  0.77621794E-04  0.75529957E-04
  0.72992286E-04  0.70034757E-04  0.66685485E-04  0.62974492E-04  0.58933479E-04
  0.54595589E-04  0.49995158E-04  0.45167476E-04  0.40148541E-04  0.34974812E-04
  0.29682966E-04  0.24309664E-04  0.18891311E-04  0.13463835E-04  0.80624631E-05
  0.27215149E-05 -0.25257993E-05 -0.76475665E-05 -0.12613347E-04 -0.17394340E-04
 -0.21963529E-04 -0.26295820E-04 -0.30368162E-04 -0.34159649E-04 -0.37651612E-04
 -0.40827688E-04 -0.43673881E-04 -0.46178598E-04 -0.48332679E-04 -0.50129398E-04
 -0.51564463E-04 -0.52635989E-04 -0.53344463E-04 -0.53692690E-04 -0.53685731E-04
 -0.53330824E-04 -0.52637290E-04 -0.51616436E-04 -0.50281440E-04 -0.48647228E-04
 -0.46730349E-04 -0.44548828E-04 -0.42122030E-04 -0.39470503E-04 -0.36615826E-04
 -0.33580451E-04 -0.30387542E-04 -0.27060811E-04 -0.23624358E-04 -0.20102509E-04
 -0.16519657E-04 -0.12900103E-04 -0.92679021E-05 -0.56467198E-05 -0.20596835E-05
  0.14707520E-05  0.49229356E-05  0.82761415E-05  0.11510684E-04  0.14608022E-04
  0.17550856E-04  0.20323214E-04  0.22910527E-04  0.25299695E-04  0.27479142E-04
  0.29438862E-04  0.31170450E-04  0.32667126E-04  0.33923747E-04  0.34936808E-04
  0.35704433E-04  0.36226357E-04  0.36503893E-04  0.36539900E-04  0.36338728E-04
  0.35906167E-04  0.35249381E-04  0.34376835E-04  0.33298219E-04  0.32024359E-04
  0.30567133E-04  0.28939366E-04  0.27154740E-04  0.25227684E-04  0.23173270E-04
  0.21007105E-04  0.18745222E-04  0.16403967E-04  0.13999892E-04  0.11549644E-04
  0.90698569E-05  0.65770465E-05  0.40875059E-05  0.16172068E-05 -0.81829708E-06
 -0.32039613E-05 -0.55253376E-05 -0.77686548E-05 -0.99208945E-05 -0.11969861E-04
 -0.13904241E-04 -0.15713666E-04 -0.17388754E-04 -0.18921156E-04 -0.20303590E-04
 -0.21529866E-04 -0.22594907E-04 -0.23494762E-04 -0.24226611E-04 -0.24788760E-04
 -0.25180635E-04 -0.25402761E-04 -0.25456745E-04 -0.25345241E-04 -0.25071917E-04
 -0.24641413E-04 -0.24059293E-04 -0.23331994E-04 -0.22466770E-04 -0.21471630E-04
 -0.20355272E-04 -0.19127021E-04 -0.17796751E-04 -0.16374817E-04 -0.14871979E-04
 -0.13299328E-04 -0.11668204E-04 -0.99901275E-05 -0.82767149E-05 -0.65396075E-05
 -0.47903951E-05 -0.30405431E-05 -0.13013216E-05  0.41626324E-06  0.21015350E-05
  0.37442091E-05  0.53344518E-05  0.68629355E-05  0.83208889E-05  0.97001439E-05
  0.10993177E-04  0.12193147E-04  0.13293926E-04  0.14290126E-04  0.15177122E-04
  0.15951069E-04  0.16608908E-04  0.17148381E-04  0.17568024E-04  0.17867166E-04
  0.18045920E-04  0.18105169E-04  0.18046545E-04  0.17872411E-04  0.17585826E-04
  0.17190523E-04  0.16690865E-04  0.16091812E-04  0.15398878E-04  0.14618085E-04
  0.13755921E-04  0.12819282E-04  0.11815430E-04  0.10751936E-04  0.96366274E-05
  0.84775327E-05  0.72828292E-05  0.60607867E-05  0.48197138E-05  0.35679038E-05
  0.23135821E-05  0.10648551E-05 -0.17033980E-06 -0.13842822E-05 -0.25695141E-05
 -0.37188837E-05 -0.48255856E-05 -0.58831987E-05 -0.68857212E-05 -0.78276018E-05
 -0.87037677E-05 -0.95096497E-05 -0.10241203E-04 -0.10894923E-04 -0.11467863E-04
 -0.11957639E-04 -0.12362439E-04 -0.12681026E-04 -0.12912732E-04 -0.13057460E-04
 -0.13115668E-04 -0.13088364E-04 -0.12977087E-04 -0.12783888E-04 -0.12511313E-04
 -0.12162372E-04 -0.11740520E-04 -0.11249622E-04 -0.10693925E-04 -0.10078025E-04
 -0.94068288E-05 -0.86855214E-05 -0.79195266E-05 -0.71144694E-05 -0.62761364E-05
 -0.54104367E-05 -0.45233619E-05 -0.36209469E-05 -0.27092304E-05 -0.17942164E-05
 -0.88183643E-06  0.22087253E-07  0.91187708E-06  0.17820342E-05  0.26272708E-05
  0.34425407E-05  0.42230677E-05  0.49643719E-05  0.56622937E-05  0.63130156E-05
  0.69130813E-05  0.74594119E-05  0.79493200E-05  0.83805208E-05  0.87511406E-05
  0.90597225E-05  0.93052288E-05  0.94870422E-05  0.96049624E-05  0.96592016E-05
  0.96503764E-05  0.95794984E-05  0.94479611E-05  0.92575255E-05  0.90103031E-05
  0.87087376E-05  0.83555837E-05  0.79538851E-05  0.75069507E-05  0.70183296E-05
  0.64917845E-05  0.59312647E-05  0.53408781E-05  0.47248625E-05  0.40875568E-05
  0.34333712E-05  0.27667590E-05  0.20921863E-05  0.14141043E-05  0.73692058E-06
  0.64971696E-07 -0.59750343E-06 -0.12463892E-05 -0.18777176E-05 -0.24876916E-05
 -0.30727070E-05 -0.36293721E-05 -0.41545267E-05 -0.46452587E-05 -0.50989191E-05
 -0.55131352E-05 -0.58858212E-05 -0.62151882E-05 -0.64997503E-05 -0.67383306E-05
 -0.69300635E-05 -0.70743962E-05 -0.71710874E-05 -0.72202043E-05 -0.72221181E-05
 -0.71774967E-05 -0.70872965E-05 -0.69527520E-05 -0.67753641E-05 -0.65568863E-05
 -0.62993103E-05 -0.60048494E-05 -0.56759217E-05 -0.53151314E-05 -0.49252494E-05
 -0.45091937E-05 -0.40700081E-05 -0.36108413E-05 -0.31349252E-05 -0.26455533E-05
 -0.21460583E-05 -0.16397908E-05 -0.11300970E-05 -0.62029830E-06 -0.11366952E-06
  0.38658080E-06  0.87733015E-06  0.13555608E-05  0.18183774E-05  0.22630242E-05
  0.26869001E-05  0.30875737E-05  0.34627959E-05  0.38105121E-05  0.41288725E-05
  0.44162410E-05  0.46712029E-05  0.48925705E-05  0.50793876E-05  0.52309329E-05
  0.53467206E-05  0.54265008E-05  0.54702576E-05  0.54782059E-05  0.54507873E-05
  0.53886633E-05  0.52927091E-05  0.51640041E-05  0.50038228E-05  0.48136240E-05
  0.45950385E-05  0.43498567E-05  0.40800149E-05  0.37875811E-05  0.34747394E-05
  0.31437754E-05  0.27970593E-05  0.24370303E-05  0.20661796E-05  0.16870341E-05
  0.13021397E-05  0.91404454E-06  0.52528311E-06  0.13835988E-06 -0.24426608E-06
 -0.62019630E-06 -0.98710739E-06 -0.13427649E-05 -0.16850363E-05 -0.20119033E-05
 -0.23214734E-05 -0.26119900E-05 -0.28818418E-05 -0.31295717E-05 -0.33538831E-05
 -0.35536471E-05 -0.37279067E-05 -0.38758809E-05 -0.39969674E-05 -0.40907443E-05
 -0.41569697E-05 -0.41955818E-05 -0.42066960E-05 -0.41906025E-05 -0.41477620E-05
 -0.40788002E-05 -0.39845020E-05 -0.38658043E-05 -0.37237879E-05 -0.35596687E-05
 -0.33747884E-05 -0.31706041E-05 -0.29486775E-05 -0.27106636E-05 -0.24582989E-05
 -0.21933892E-05 -0.19177972E-05 -0.16334299E-05 -0.13422257E-05 -0.10461419E-05
 -0.74714165E-06 -0.44718137E-06 -0.14819851E-06  0.14790071E-06  0.43925309E-06
  0.72404971E-06  0.10005469E-05  0.12670764E-05  0.15220553E-05  0.17639948E-05
  0.19915086E-05  0.22033205E-05  0.23982711E-05  0.25753237E-05  0.27335696E-05
  0.28722319E-05  0.29906689E-05  0.30883767E-05  0.31649905E-05  0.32202852E-05
  0.32541749E-05  0.32667120E-05  0.32580850E-05  0.32286155E-05  0.31787544E-05
  0.31090777E-05  0.30202810E-05  0.29131736E-05  0.27886717E-05  0.26477919E-05
  0.24916424E-05  0.23214158E-05  0.21383796E-05  0.19438679E-05  0.17392714E-05
  0.15260281E-05  0.13056136E-05  0.10795311E-05  0.84930134E-06  0.61645299E-06
  0.38251240E-06  0.14899415E-06 -0.82608643E-07 -0.31083349E-06 -0.53425758E-06
 -0.75150632E-06 -0.96126157E-06 -0.11622694E-05 -0.13533472E-05 -0.15333904E-05
 -0.17013788E-05 -0.18563817E-05 -0.19975630E-05 -0.21241852E-05 -0.22356131E-05
 -0.23313165E-05 -0.24108724E-05 -0.24739663E-05 -0.25203928E-05 -0.25500560E-05
 -0.25629682E-05 -0.25592491E-05 -0.25391232E-05 -0.25029175E-05 -0.24510580E-05
 -0.23840656E-05 -0.23025523E-05 -0.22072152E-05 -0.20988318E-05 -0.19782539E-05
 -0.18464011E-05 -0.17042540E-05 -0.15528476E-05 -0.13932637E-05 -0.12266238E-05
 -0.10540808E-05 -0.87681201E-06 -0.69601085E-06 -0.51287918E-06 -0.32861951E-06
 atomic pseudo charge-density
  0.11000000E+02  0.10990257E+02  0.10961129E+02  0.10912910E+02  0.10846084E+02
  0.10761305E+02  0.10659386E+02  0.10541270E+02  0.10408008E+02  0.10260736E+02
  0.10100647E+02  0.99289684E+01  0.97469370E+01  0.95557811E+01  0.93567024E+01
  0.91508615E+01  0.89393670E+01  0.87232667E+01  0.85035423E+01  0.82811059E+01
  0.80567987E+01  0.78313915E+01  0.76055863E+01  0.73800191E+01  0.71552629E+01
  0.69318320E+01  0.67101856E+01  0.64907324E+01  0.62738341E+01  0.60598100E+01
  0.58489403E+01  0.56414698E+01  0.54376111E+01  0.52375477E+01  0.50414366E+01
  0.48494108E+01  0.46615815E+01  0.44780404E+01  0.42988612E+01  0.41241011E+01
  0.39538030E+01  0.37879960E+01  0.36266971E+01  0.34699123E+01  0.33176371E+01
  0.31698583E+01  0.30265539E+01  0.28876943E+01  0.27532433E+01  0.26231579E+01
  0.24973899E+01  0.23758856E+01  0.22585867E+01  0.21454309E+01  0.20363519E+01
  0.19312803E+01  0.18301434E+01  0.17328663E+01  0.16393715E+01  0.15495796E+01
  0.14634094E+01  0.13807784E+01  0.13016029E+01  0.12257980E+01  0.11532784E+01
  0.10839581E+01  0.10177505E+01  0.95456916E+00  0.89432749E+00  0.83693899E+00
  0.78231750E+00  0.73037722E+00  0.68103291E+00  0.63419997E+00  0.58979455E+00
  0.54773366E+00  0.50793525E+00  0.47031830E+00  0.43480289E+00  0.40131030E+00
  0.36976304E+00  0.34008491E+00  0.31220109E+00  0.28603815E+00  0.26152412E+00
  0.23858852E+00  0.21716238E+00  0.19717830E+00  0.17857044E+00  0.16127459E+00
  0.14522813E+00  0.13037010E+00  0.11664117E+00  0.10398368E+00  0.92341618E-01
  0.81660651E-01  0.71888102E-01  0.62972959E-01  0.54865867E-01  0.47519125E-01
  0.40886670E-01  0.34924074E-01  0.29588523E-01  0.24838809E-01  0.20635309E-01
  0.16939969E-01  0.13716284E-01  0.10929276E-01  0.85454754E-02  0.65328911E-02
  0.48609914E-02  0.35006756E-02  0.24242477E-02  0.16053886E-02  0.10191275E-02
  0.64181230E-03  0.45107959E-03  0.42582361E-03  0.54616482E-03  0.79341784E-03
  0.11500589E-02  0.15996927E-02  0.21270193E-02  0.27178000E-02  0.33588237E-02
  0.40378724E-02  0.47436869E-02  0.54659323E-02  0.61951631E-02  0.69227890E-02
  0.76410402E-02  0.83429325E-02  0.90222333E-02  0.96734273E-02  0.10291682E-01
  0.10872816E-01  0.11413261E-01  0.11910034E-01  0.12360701E-01  0.12763348E-01
  0.13116544E-01  0.13419317E-01  0.13671115E-01  0.13871784E-01  0.14021532E-01
  0.14120903E-01  0.14170752E-01  0.14172211E-01  0.14126667E-01  0.14035735E-01
  0.13901234E-01  0.13725159E-01  0.13509664E-01  0.13257033E-01  0.12969664E-01
  0.12650045E-01  0.12300733E-01  0.11924342E-01  0.11523516E-01  0.11100920E-01
  0.10659219E-01  0.10201066E-01  0.97290861E-02  0.92458657E-02  0.87539380E-02
  0.82557732E-02  0.77537686E-02  0.72502386E-02  0.67474070E-02  0.62473991E-02
  0.57522356E-02  0.52638269E-02  0.47839679E-02  0.43143345E-02  0.38564802E-02
  0.34118335E-02  0.29816968E-02  0.25672448E-02  0.21695245E-02  0.17894557E-02
  0.14278319E-02  0.10853218E-02  0.76247155E-03  0.45970746E-03  0.17733898E-03
 -0.84437623E-04 -0.32553527E-03 -0.54597172E-03 -0.74586487E-03 -0.92542775E-03
 -0.10849633E-02 -0.12248588E-02 -0.13455803E-02 -0.14476667E-02 -0.15317240E-02
 -0.15984189E-02 -0.16484730E-02 -0.16826567E-02 -0.17017830E-02 -0.17067012E-02
 -0.16982915E-02 -0.16774586E-02 -0.16451261E-02 -0.16022308E-02 -0.15497173E-02
 -0.14885325E-02 -0.14196210E-02 -0.13439198E-02 -0.12623536E-02 -0.11758310E-02
 -0.10852398E-02 -0.99144340E-03 -0.89527752E-03 -0.79754651E-03 -0.69902067E-03
 -0.60043354E-03 -0.50247957E-03 -0.40581205E-03 -0.31104144E-03 -0.21873385E-03
 -0.12941001E-03 -0.43544353E-04  0.38435516E-04  0.11614908E-03  0.18926294E-03
  0.25749053E-03  0.32059166E-03  0.37837172E-03  0.43068078E-03  0.47741235E-03
  0.51850208E-03  0.55392615E-03  0.58369959E-03  0.60787440E-03  0.62653755E-03
  0.63980884E-03  0.64783871E-03  0.65080591E-03  0.64891512E-03  0.64239451E-03
  0.63149327E-03  0.61647913E-03  0.59763581E-03  0.57526056E-03  0.54966167E-03
  0.52115601E-03  0.49006663E-03  0.45672044E-03  0.42144592E-03  0.38457092E-03
  0.34642059E-03  0.30731533E-03  0.26756895E-03  0.22748685E-03  0.18736439E-03
  0.14748532E-03  0.10812042E-03  0.69526227E-04  0.31943880E-04 -0.44018396E-05
 -0.39303369E-04 -0.72571069E-04 -0.10403379E-03 -0.13353929E-03 -0.16095456E-03
 -0.18616595E-03 -0.20907919E-03 -0.22961935E-03 -0.24773055E-03 -0.26337570E-03
 -0.27653600E-03 -0.28721043E-03 -0.29541510E-03 -0.30118255E-03 -0.30456088E-03
 -0.30561295E-03 -0.30441537E-03 -0.30105753E-03 -0.29564055E-03 -0.28827617E-03
 -0.27908564E-03 -0.26819856E-03 -0.25575174E-03 -0.24188802E-03 -0.22675506E-03
 -0.21050424E-03 -0.19328949E-03 -0.17526610E-03 -0.15658973E-03 -0.13741524E-03
 -0.11789574E-03 -0.98181564E-04 -0.78419352E-04 -0.58751182E-04 -0.39313747E-04
 -0.20237598E-04 -0.16464590E-05  0.16343399E-04  0.33623709E-04  0.50094690E-04
  0.65665456E-04  0.80254355E-04  0.93789231E-04  0.10620762E-03  0.11745686E-03
  0.12749417E-03  0.13628661E-03  0.14381100E-03  0.15005377E-03  0.15501079E-03
  0.15868707E-03  0.16109644E-03  0.16226123E-03  0.16221178E-03  0.16098607E-03
  0.15862916E-03  0.15519269E-03  0.15073433E-03  0.14531718E-03  0.13900919E-03
  0.13188254E-03  0.12401299E-03  0.11547929E-03  0.10636249E-03  0.96745375E-04
  0.86711782E-04  0.76346016E-04  0.65732241E-04  0.54953901E-04  0.44093156E-04
  0.33230353E-04  0.22443510E-04  0.11807847E-04  0.13953369E-05 -0.87257045E-05
 -0.18490989E-04 -0.27840594E-04 -0.36719253E-04 -0.45076616E-04 -0.52867460E-04
 -0.60051864E-04 -0.66595337E-04 -0.72468911E-04 -0.77649191E-04 -0.82118362E-04
 -0.85864161E-04 -0.88879810E-04 -0.91163911E-04 -0.92720314E-04 -0.93557937E-04
 -0.93690574E-04 -0.93136662E-04 -0.91919023E-04 -0.90064587E-04 -0.87604094E-04
 -0.84571771E-04 -0.81004996E-04 -0.76943958E-04 -0.72431288E-04 -0.67511703E-04
 -0.62231626E-04 -0.56638822E-04 -0.50782017E-04 -0.44710532E-04 -0.38473922E-04
 -0.32121612E-04 -0.25702556E-04 -0.19264902E-04 -0.12855672E-04 -0.65204556E-05
 -0.30312749E-06  0.57544208E-05  0.11612527E-04  0.17233981E-04  0.22584228E-04
  0.27631545E-04  0.32347193E-04  0.36705545E-04  0.40684192E-04  0.44264018E-04
  0.47429253E-04  0.50167503E-04  0.52469750E-04  0.54330335E-04  0.55746912E-04
  0.56720383E-04  0.57254810E-04  0.57357310E-04  0.57037924E-04  0.56309479E-04
  0.55187423E-04  0.53689653E-04  0.51836327E-04  0.49649662E-04  0.47153732E-04
  0.44374243E-04  0.41338314E-04  0.38074249E-04  0.34611305E-04  0.30979461E-04
  0.27209185E-04  0.23331207E-04  0.19376291E-04  0.15375012E-04  0.11357547E-04
  0.73534674E-05  0.33915370E-05 -0.50046872E-06 -0.42959409E-05 -0.79695995E-05
 -0.11497643E-04 -0.14857885E-04 -0.18029872E-04 -0.20994994E-04 -0.23736571E-04
 -0.26239927E-04 -0.28492453E-04 -0.30483644E-04 -0.32205128E-04 -0.33650678E-04
 -0.34816201E-04 -0.35699727E-04 -0.36301367E-04 -0.36623265E-04 -0.36669541E-04
 -0.36446210E-04 -0.35961098E-04 -0.35223746E-04 -0.34245299E-04 -0.33038392E-04
 -0.31617022E-04 -0.29996423E-04 -0.28192920E-04 -0.26223793E-04 -0.24107131E-04
 -0.21861678E-04 -0.19506690E-04 -0.17061784E-04 -0.14546783E-04 -0.11981576E-04
 -0.93859696E-05 -0.67795473E-05 -0.41815345E-05 -0.16106677E-05  0.91492981E-06
  0.33778648E-05  0.57615830E-05  0.80504702E-05  0.10229944E-04  0.12286535E-04
  0.14207963E-04  0.15983193E-04  0.17602496E-04  0.19057482E-04  0.20341137E-04
  0.21447843E-04  0.22373384E-04  0.23114952E-04  0.23671133E-04  0.24041886E-04
  0.24228517E-04  0.24233639E-04  0.24061125E-04  0.23716050E-04  0.23204637E-04
  0.22534176E-04  0.21712958E-04  0.20750190E-04  0.19655908E-04  0.18440888E-04
  0.17116555E-04  0.15694881E-04  0.14188291E-04  0.12609566E-04  0.10971736E-04
  0.92879870E-05  0.75715596E-05  0.58356529E-05  0.40933300E-05  0.23574264E-05
  0.64046207E-06 -0.10454423E-05 -0.26886447E-05 -0.42780558E-05 -0.58032074E-05
 -0.72543156E-05 -0.86223368E-05 -0.98990180E-05 -0.11076940E-04 -0.12149554E-04
 -0.13111209E-04 -0.13957179E-04 -0.14683672E-04 -0.15287842E-04 -0.15767789E-04
 -0.16122555E-04 -0.16352109E-04 -0.16457328E-04 -0.16439976E-04 -0.16302670E-04
 -0.16048843E-04 -0.15682706E-04 -0.15209199E-04 -0.14633939E-04 -0.13963171E-04
 -0.13203706E-04 -0.12362861E-04 -0.11448396E-04 -0.10468450E-04 -0.94314730E-05
 -0.83461592E-05 -0.72213803E-05 -0.60661164E-05 -0.48893893E-05 -0.37001971E-05
 -0.25074485E-05 -0.13199011E-05 -0.14610089E-06  0.10056757E-05  0.21274759E-05
  0.32117216E-05  0.42512571E-05  0.52393922E-05  0.61699412E-05  0.70372581E-05
  0.78362664E-05  0.85624846E-05  0.92120472E-05  0.97817200E-05  0.10268912E-04
  0.10671680E-04  0.10988731E-04  0.11219420E-04  0.11363740E-04  0.11422310E-04
  0.11396358E-04  0.11287704E-04  0.11098728E-04  0.10832349E-04  0.10491991E-04
  0.10081547E-04  0.96053435E-05  0.90681007E-05  0.84748902E-05  0.78310920E-05
  0.71423499E-05  0.64145251E-05  0.56536503E-05  0.48658827E-05  0.40574568E-05
  0.32346383E-05  0.24036782E-05  0.15707678E-05  0.74199545E-06 -0.76695866E-07
 -0.87954831E-06 -0.16610274E-05 -0.24158576E-05 -0.31390556E-05 -0.38259608E-05
 -0.44722626E-05 -0.50740252E-05 -0.56277085E-05 -0.61301869E-05 -0.65787632E-05
 -0.69711808E-05 -0.73056312E-05 -0.75807588E-05 -0.77956623E-05 -0.79498925E-05
 -0.80434475E-05 -0.80767640E-05 -0.80507062E-05 -0.79665513E-05 -0.78259733E-05
 -0.76310228E-05 -0.73841061E-05 -0.70879603E-05 -0.67456284E-05 -0.63604312E-05
 -0.59359384E-05 -0.54759385E-05 -0.49844071E-05 -0.44654751E-05 -0.39233964E-05
 -0.33625145E-05 -0.27872297E-05 -0.22019669E-05 -0.16111425E-05 -0.10191336E-05
 -0.43024669E-06  0.15131199E-06  0.72146465E-06  0.12762891E-05  0.18120443E-05
  0.23251934E-05  0.28124264E-05  0.32706790E-05  0.36971507E-05  0.40893198E-05
  0.44449572E-05  0.47621363E-05  0.50392419E-05  0.52749765E-05  0.54683631E-05
  0.56187476E-05  0.57257966E-05  0.57894950E-05  0.58101401E-05  0.57883339E-05
  0.57249732E-05  0.56212384E-05  0.54785798E-05  0.52987022E-05  0.50835487E-05
  0.48352820E-05  0.45562655E-05  0.42490424E-05  0.39163150E-05  0.35609216E-05
  0.31858146E-05  0.27940369E-05  0.23886988E-05  0.19729542E-05  0.15499776E-05
  0.11229409E-05  0.69499059E-06  0.26922575E-06 -0.15132323E-06 -0.56371526E-06
 -0.96511801E-06 -0.13528264E-05 -0.17242795E-05 -0.20770768E-05 -0.24089922E-05
 -0.27179874E-05 -0.30022227E-05 -0.32600674E-05 -0.34901072E-05 -0.36911515E-05
 -0.38622371E-05 -0.40026322E-05 -0.41118369E-05 -0.41895833E-05 -0.42358337E-05
 -0.42507762E-05 -0.42348204E-05 -0.41885903E-05 -0.41129164E-05 -0.40088262E-05
 -0.38775337E-05 -0.37204275E-05 -0.35390581E-05 -0.33351242E-05 -0.31104578E-05
 -0.28670093E-05 -0.26068315E-05 -0.23320631E-05 -0.20449123E-05 -0.17476399E-05
 -0.14425419E-05 -0.11319333E-05 -0.81813067E-06 -0.50343583E-06 -0.19011980E-06
  0.11959299E-06  0.42353973E-06  0.71963364E-06  0.10058776E-05  0.12803768E-05
  0.15413508E-05  0.17871441E-05  0.20162361E-05  0.22272495E-05  0.24189580E-05
  0.25902928E-05  0.27403469E-05  0.28683800E-05  0.29738202E-05  0.30562660E-05
  0.31154861E-05  0.31514185E-05  0.31641680E-05  0.31540034E-05  0.31213522E-05
  0.30667959E-05  0.29910628E-05  0.28950208E-05  0.27796690E-05  0.26461287E-05
  0.24956332E-05  0.23295178E-05  0.21492082E-05  0.19562094E-05  0.17520935E-05
  0.15384879E-05  0.13170624E-05  0.10895172E-05  0.85756987E-06  0.62294348E-06
  0.38735388E-06  0.15249781E-06 -0.79958871E-07 -0.30839247E-06 -0.53123236E-06
 -0.74697130E-06 -0.95417512E-06 -0.11514918E-05 -0.13376599E-05 -0.15115158E-05
 -0.16720009E-05 -0.18181673E-05 -0.19491828E-05 -0.20643353E-05 -0.21630359E-05
 -0.22448210E-05 -0.23093544E-05 -0.23564270E-05 -0.23859568E-05 -0.23979879E-05
 -0.23926877E-05 -0.23703444E-05 -0.23313628E-05 -0.22762602E-05 -0.22056607E-05
 -0.21202895E-05 -0.20209661E-05 -0.19085974E-05 -0.17841698E-05 -0.16487410E-05
 -0.15034319E-05 -0.13494174E-05 -0.11879175E-05 -0.10201880E-05 -0.84751120E-06
 -0.67118617E-06 -0.49251972E-06 -0.31281684E-06 -0.13337156E-06  0.44542053E-07
  0.21967857E-06  0.39082964E-06  0.55683197E-06  0.71657492E-06  0.86900763E-06
  0.10131456E-05  0.11480766E-05  0.12729664E-05  0.13870633E-05  0.14897025E-05
  0.15803093E-05  0.16584024E-05  0.17235954E-05  0.17755990E-05  0.18142210E-05
  0.18393667E-05  0.18510383E-05  0.18493332E-05  0.18344427E-05  0.18066487E-05
  0.17663207E-05  0.17139124E-05  0.16499567E-05  0.15750616E-05  0.14899045E-05
  0.13952263E-05  0.12918258E-05  0.11805533E-05  0.10623033E-05  0.93800834E-06
  0.80863150E-06  0.67515932E-06  0.53859455E-06  0.39994882E-06  0.26023543E-06
  0.12046213E-06 -0.18375871E-07 -0.15530282E-06 -0.28936899E-06 -0.41965713E-06
 -0.54528845E-06 -0.66542838E-06 -0.77929186E-06 -0.88614831E-06 -0.98532602E-06
 -0.10762162E-05 -0.11582766E-05 -0.12310341E-05 -0.12940878E-05 -0.13471103E-05
 -0.13898496E-05 -0.14221296E-05 -0.14438508E-05 -0.14549895E-05 -0.14555974E-05
 -0.14458004E-05 -0.14257965E-05 -0.13958537E-05 -0.13563070E-05 -0.13075558E-05
 -0.12500597E-05 -0.11843345E-05 -0.11109486E-05 -0.10305174E-05 -0.94369905E-06
 -0.85118913E-06 -0.75371510E-06 -0.65203094E-06 -0.54691148E-06 -0.43914664E-06
 -0.32953569E-06 -0.21888150E-06 -0.10798478E-06  0.23615170E-08  0.11137775E-06
  0.21830290E-06  0.32239979E-06  0.42295998E-06  0.51930846E-06  0.61080804E-06
  0.69686339E-06  0.77692483E-06  0.85049164E-06  0.91711505E-06  0.97640082E-06
  0.10280114E-05  0.10716678E-05  0.11071506E-05  0.11343010E-05  0.11530214E-05
  0.11632753E-05  0.11650865E-05  0.11585388E-05  0.11437746E-05  0.11209928E-05
  0.10904474E-05  0.10524446E-05  0.10073403E-05  0.95553664E-06  0.89747932E-06
  0.83365334E-06  0.76457937E-06  0.69080961E-06  0.61292358E-06  0.53152363E-06
  0.44723047E-06  0.36067854E-06  0.27251134E-06  0.18337680E-06  0.93922572E-07
  0.47915009E-08 -0.83382942E-07 -0.16998104E-06 -0.25440108E-06 -0.33606344E-06
 -0.41441449E-06 -0.48893021E-06 -0.55911963E-06 -0.62452796E-06 -0.68473941E-06
 -0.73937978E-06 -0.78811863E-06 -0.83067122E-06 -0.86679999E-06 -0.89631578E-06
 -0.91907869E-06 -0.93499850E-06 -0.94403483E-06 -0.94619690E-06 -0.94154291E-06
 -0.93017915E-06 -0.91225872E-06 -0.88797995E-06 -0.85758453E-06 -0.82135529E-06
 -0.77961382E-06 -0.73271771E-06 -0.68105769E-06 -0.62505444E-06 -0.56515532E-06
 -0.50183086E-06 -0.43557124E-06 -0.36688249E-06 -0.29628278E-06 -0.22429861E-06
 -0.15146088E-06 -0.78301145E-07 -0.53477659E-08  0.66877830E-07  0.13786480E-06
  0.20711643E-06  0.27415353E-06  0.33851771E-06  0.39977442E-06  0.45751584E-06
  0.51136349E-06  0.56097069E-06  0.60602469E-06  0.64624857E-06  0.68140286E-06
  0.71128691E-06  0.73573987E-06  0.75464153E-06  0.76791271E-06  0.77551543E-06
  0.77745279E-06  0.77376855E-06  0.76454634E-06  0.74990877E-06  0.73001608E-06
  0.70506465E-06  0.67528525E-06  0.64094101E-06  0.60232524E-06  0.55975901E-06
  0.51358859E-06  0.46418271E-06  0.41192969E-06  0.35723446E-06  0.30051549E-06
  0.24220164E-06  0.18272902E-06  0.12253775E-06  0.62068737E-07  0.17605698E-08
 -0.57953673E-07 -0.11664946E-06 -0.17391376E-06 -0.22934793E-06 -0.28257043E-06
 -0.33321938E-06 -0.38095500E-06 -0.42546184E-06 -0.46645078E-06 -0.50366090E-06
 -0.53686106E-06 -0.56585126E-06 -0.59046384E-06 -0.61056429E-06 -0.62605196E-06
 -0.63686047E-06 -0.64295778E-06 -0.64434618E-06 -0.64106188E-06 -0.63317447E-06
 -0.62078603E-06 -0.60403019E-06 -0.58307075E-06 -0.55810028E-06 -0.52933843E-06
 -0.49703011E-06 -0.46144346E-06 -0.42286767E-06 -0.38161076E-06 -0.33799712E-06
 -0.29236503E-06 -0.24506410E-06 -0.19645261E-06 -0.14689487E-06 -0.96758520E-07
 -0.46411833E-07  0.37789319E-08  0.53452168E-07  0.10225348E-06  0.14983819E-06
  0.19587371E-06  0.24004187E-06  0.28204102E-06  0.32158812E-06  0.35842057E-06
  0.39229792E-06  0.42300341E-06  0.45034528E-06  0.47415797E-06  0.49430303E-06
  0.51066989E-06  0.52317636E-06  0.53176900E-06  0.53642321E-06  0.53714312E-06
  0.53396134E-06  0.52693839E-06  0.51616205E-06  0.50174645E-06  0.48383097E-06
  0.46257902E-06  0.43817666E-06  0.41083095E-06  0.38076833E-06  0.34823278E-06
  0.31348387E-06  0.27679474E-06  0.23845001E-06  0.19874356E-06  0.15797639E-06
  0.11645430E-06  0.74485686E-07  0.32379224E-07 -0.95583240E-08 -0.51024335E-07
   15.1178079086314      T
 Non local Part
           2           2   1.35494720271941     
   34.3822966367287        32.5647391624551        32.5647391624551     
   30.8461425837428     
 Reciprocal Space Part
  0.00000000E+00 -0.19919159E+00 -0.79137246E+00 -0.17604865E+01 -0.30801886E+01
 -0.47144578E+01 -0.66184348E+01 -0.87394650E+01 -0.11018323E+02 -0.13390591E+02
 -0.15788155E+02 -0.18140788E+02 -0.20377786E+02 -0.22429613E+02 -0.24229518E+02
 -0.25715090E+02 -0.26829723E+02 -0.27523932E+02 -0.27756526E+02 -0.27495581E+02
 -0.26719213E+02 -0.25416117E+02 -0.23585880E+02 -0.21239045E+02 -0.18396935E+02
 -0.15091241E+02 -0.11363384E+02 -0.72636692E+01 -0.28502489E+01  0.18120763E+01
  0.66531943E+01  0.11599121E+02  0.16573514E+02  0.21499219E+02  0.26299825E+02
  0.30901185E+02  0.35232868E+02  0.39229522E+02  0.42832109E+02  0.45988988E+02
  0.48656833E+02  0.50801358E+02  0.52397839E+02  0.53431438E+02  0.53897301E+02
  0.53800460E+02  0.53155522E+02  0.51986173E+02  0.50324501E+02  0.48210167E+02
  0.45689433E+02  0.42814087E+02  0.39640278E+02  0.36227295E+02  0.32636325E+02
  0.28929198E+02  0.25167171E+02  0.21409759E+02  0.17713645E+02  0.14131688E+02
  0.10712050E+02  0.74974555E+01  0.45245913E+01  0.18236642E+01 -0.58188809E+00
 -0.26755284E+01 -0.44475980E+01 -0.58951469E+01 -0.70216283E+01 -0.78364674E+01
 -0.83545216E+01 -0.85954491E+01 -0.85830032E+01 -0.83442734E+01 -0.79088925E+01
 -0.73082297E+01 -0.65745903E+01 -0.57404381E+01 -0.48376609E+01 -0.38968907E+01
 -0.29468956E+01 -0.20140506E+01 -0.11218986E+01 -0.29080630E+00  0.46228273E+00
  0.11239954E+01  0.16845804E+01  0.21378668E+01  0.24811367E+01  0.27149199E+01
  0.28427209E+01  0.28706885E+01  0.28072403E+01  0.26626548E+01  0.24486432E+01
  0.21779131E+01  0.18637374E+01  0.15195376E+01  0.11584936E+01  0.79318700E+00
 Real Space Part
  0.00000000E+00  0.17955123E+00  0.71706847E+00  0.16091481E+01  0.28501359E+01
  0.44321557E+01  0.63451478E+01  0.85769197E+01  0.11113206E+02  0.13937742E+02
  0.17032341E+02  0.20376992E+02  0.23949955E+02  0.27727876E+02  0.31685904E+02
  0.35797821E+02  0.40036177E+02  0.44372434E+02  0.48777118E+02  0.53219974E+02
  0.57670132E+02  0.62096277E+02  0.66466819E+02  0.70750077E+02  0.74914457E+02
  0.78928642E+02  0.82761776E+02  0.86383656E+02  0.89764923E+02  0.92877258E+02
  0.95693567E+02  0.98188178E+02  0.10033703E+03  0.10211785E+03  0.10351036E+03
  0.10449643E+03  0.10506027E+03  0.10518859E+03  0.10487076E+03  0.10409896E+03
  0.10286835E+03  0.10117715E+03  0.99026795E+02  0.96422011E+02  0.93370924E+02
  0.89885111E+02  0.85979649E+02  0.81673129E+02  0.76987663E+02  0.71948840E+02
  0.66585669E+02  0.60930477E+02  0.55018780E+02  0.48889109E+02  0.42582800E+02
  0.36143739E+02  0.29618067E+02  0.23053838E+02  0.16500631E+02  0.10009127E+02
  0.36306294E+01 -0.25834455E+01 -0.85821172E+01 -0.14315423E+02 -0.19735027E+02
 -0.24794846E+02 -0.29451689E+02 -0.33665898E+02 -0.37401981E+02 -0.40629225E+02
 -0.43322281E+02 -0.45461706E+02 -0.47034451E+02 -0.48034281E+02 -0.48462124E+02
 -0.48326345E+02 -0.47642902E+02 -0.46435423E+02 -0.44735196E+02 -0.42581006E+02
 -0.40018920E+02 -0.37101952E+02 -0.33889601E+02 -0.30447377E+02 -0.26846144E+02
 -0.23161502E+02 -0.19473003E+02 -0.15863426E+02 -0.12417921E+02 -0.92232054E+01
 -0.63667183E+01 -0.39358220E+01 -0.20165895E+01 -0.69319724E+00 -0.60731425E-01
  0.32686166E-02  0.54321853E-03 -0.21065592E-03  0.31230354E-04  0.00000000E+00
 Reciprocal Space Part
  0.00000000E+00  0.21186772E+00  0.84190109E+00  0.18735189E+01  0.32795101E+01
  0.50226592E+01  0.70566029E+01  0.93268953E+01  0.11772260E+02  0.14325996E+02
  0.16917514E+02  0.19473952E+02  0.21921852E+02  0.24188842E+02  0.26205300E+02
  0.27905947E+02  0.29231352E+02  0.30129291E+02  0.30555954E+02  0.30476957E+02
  0.29868147E+02  0.28716170E+02  0.27018808E+02  0.24785066E+02  0.22035014E+02
  0.18799383E+02  0.15118942E+02  0.11043648E+02  0.66316103E+01  0.19478832E+01
 -0.29368788E+01 -0.79478782E+01 -0.13007705E+02 -0.18037907E+02 -0.22960570E+02
 -0.27699863E+02 -0.32183526E+02 -0.36344256E+02 -0.40120980E+02 -0.43459969E+02
 -0.46315785E+02 -0.48652038E+02 -0.50441941E+02 -0.51668659E+02 -0.52325435E+02
 -0.52415511E+02 -0.51951845E+02 -0.50956628E+02 -0.49460623E+02 -0.47502347E+02
 -0.45127107E+02 -0.42385928E+02 -0.39334393E+02 -0.36031417E+02 -0.32538000E+02
 -0.28915965E+02 -0.25226730E+02 -0.21530131E+02 -0.17883310E+02 -0.14339714E+02
 -0.10948201E+02 -0.77522802E+01 -0.47894974E+01 -0.20909699E+01  0.31891968E+00
  0.24226726E+01  0.42096692E+01  0.56760156E+01  0.68242524E+01  0.76629366E+01
  0.82061139E+01  0.84726961E+01  0.84857635E+01  0.82718119E+01  0.78599635E+01
  0.72811620E+01  0.65673726E+01  0.57508032E+01  0.48631663E+01  0.39349960E+01
  0.29950331E+01  0.20696904E+01  0.11826061E+01  0.35429146E+00 -0.39812391E+00
 -0.10610480E+01 -0.16244863E+01 -0.20820083E+01 -0.24306281E+01 -0.26706069E+01
 -0.28051860E+01 -0.28402629E+01 -0.27840209E+01 -0.26465255E+01 -0.24392994E+01
 -0.21748892E+01 -0.18664354E+01 -0.15272569E+01 -0.11704604E+01 -0.80858322E+00
 Real Space Part
  0.00000000E+00 -0.17512774E+00 -0.69938959E+00 -0.15694271E+01 -0.27796615E+01
 -0.43223216E+01 -0.61874828E+01 -0.83631168E+01 -0.10835152E+02 -0.13587546E+02
 -0.16602363E+02 -0.19859870E+02 -0.23338633E+02 -0.27015633E+02 -0.30866376E+02
 -0.34865029E+02 -0.38984553E+02 -0.43196842E+02 -0.47472879E+02 -0.51782887E+02
 -0.56096499E+02 -0.60382917E+02 -0.64611094E+02 -0.68749905E+02 -0.72768331E+02
 -0.76635645E+02 -0.80321594E+02 -0.83796593E+02 -0.87031912E+02 -0.89999867E+02
 -0.92674010E+02 -0.95029319E+02 -0.97042386E+02 -0.98691598E+02 -0.99957324E+02
 -0.10082209E+03 -0.10127074E+03 -0.10129063E+03 -0.10087175E+03 -0.10000690E+03
 -0.98691795E+02 -0.96925239E+02 -0.94709197E+02 -0.92048908E+02 -0.88952963E+02
 -0.85433370E+02 -0.81505586E+02 -0.77188538E+02 -0.72504614E+02 -0.67479622E+02
 -0.62142721E+02 -0.56526322E+02 -0.50665945E+02 -0.44600047E+02 -0.38369805E+02
 -0.32018859E+02 -0.25593013E+02 -0.19139888E+02 -0.12708537E+02 -0.63490169E+01
 -0.11191345E+00  0.59521685E+01  0.11793151E+02  0.17362058E+02  0.22611621E+02
  0.27496894E+02  0.31975887E+02  0.36010189E+02  0.39565597E+02  0.42612707E+02
  0.45127486E+02  0.47091798E+02  0.48493873E+02  0.49328708E+02  0.49598398E+02
  0.49312392E+02  0.48487630E+02  0.47148599E+02  0.45327313E+02  0.43063129E+02
  0.40402522E+02  0.37398739E+02  0.34111326E+02  0.30605654E+02  0.26952248E+02
  0.23226180E+02  0.19506280E+02  0.15874421E+02  0.12414666E+02  0.92124800E+01
  0.63538922E+01  0.39247164E+01  0.20093536E+01  0.69020494E+00  0.60426276E-01
 -0.32510513E-02 -0.54030096E-03  0.20952451E-03 -0.31062619E-04  0.00000000E+00
 Non local Part
           0           2   1.35494720271941     
   4.78106111124177        8.01123166044086        8.01123166044086     
   13.4429624877139     
 Reciprocal Space Part
  0.15387551E+02  0.14822091E+02  0.13135315E+02  0.10355863E+02  0.65308793E+01
  0.17251478E+01 -0.39801004E+01 -0.10488675E+02 -0.17691182E+02 -0.25467019E+02
 -0.33686553E+02 -0.42213463E+02 -0.50907172E+02 -0.59625344E+02 -0.68226390E+02
 -0.76571924E+02 -0.84529141E+02 -0.91973056E+02 -0.98788570E+02 -0.10487233E+03
 -0.11013432E+03 -0.11449922E+03 -0.11790746E+03 -0.12031590E+03 -0.12169830E+03
 -0.12204541E+03 -0.12136471E+03 -0.11967996E+03 -0.11703030E+03 -0.11346924E+03
 -0.10906332E+03 -0.10389060E+03 -0.98038925E+02 -0.91604156E+02 -0.84688201E+02
 -0.77397050E+02 -0.69838790E+02 -0.62121629E+02 -0.54352001E+02 -0.46632758E+02
 -0.39061508E+02 -0.31729097E+02 -0.24718295E+02 -0.18102673E+02 -0.11945708E+02
 -0.63001171E+01 -0.12074271E+01  0.33022230E+01  0.72100488E+01  0.10508369E+02
  0.13200147E+02  0.15298353E+02  0.16825148E+02  0.17810942E+02  0.18293326E+02
  0.18315924E+02  0.17927180E+02  0.17179121E+02  0.16126110E+02  0.14823634E+02
  0.13327126E+02  0.11690870E+02  0.99669918E+01  0.82045595E+01  0.64488057E+01
  0.47404807E+01  0.31153454E+01  0.16038064E+01  0.23069165E+00 -0.98483405E+00
 -0.20292228E+01 -0.28943740E+01 -0.35773538E+01 -0.40800166E+01 -0.44085442E+01
 -0.45729182E+01 -0.45863429E+01 -0.44646351E+01 -0.42255985E+01 -0.38883978E+01
 -0.34729494E+01 -0.29993400E+01 -0.24872882E+01 -0.19556577E+01 -0.14220313E+01
 -0.90235269E+00 -0.41063926E+00  0.41230942E-01  0.44365806E+00  0.78938710E+00
  0.10735056E+01  0.12933775E+01  0.14485199E+01  0.15404297E+01  0.15723689E+01
  0.15491173E+01  0.14767022E+01  0.13621132E+01  0.12130133E+01  0.10374517E+01
 Real Space Part
 -0.25966079E+03 -0.25959135E+03 -0.25938278E+03 -0.25903432E+03 -0.25854473E+03
 -0.25791225E+03 -0.25713467E+03 -0.25620934E+03 -0.25513315E+03 -0.25390261E+03
 -0.25251384E+03 -0.25096263E+03 -0.24924446E+03 -0.24735459E+03 -0.24528802E+03
 -0.24303964E+03 -0.24060420E+03 -0.23797643E+03 -0.23515105E+03 -0.23212289E+03
 -0.22888693E+03 -0.22543834E+03 -0.22177262E+03 -0.21788564E+03 -0.21377371E+03
 -0.20943369E+03 -0.20486307E+03 -0.20006002E+03 -0.19502353E+03 -0.18975347E+03
 -0.18425067E+03 -0.17851703E+03 -0.17255559E+03 -0.16637062E+03 -0.15996769E+03
 -0.15335377E+03 -0.14653729E+03 -0.13952822E+03 -0.13233809E+03 -0.12498009E+03
 -0.11746909E+03 -0.10982167E+03 -0.10205615E+03 -0.94192565E+02 -0.86252671E+02
 -0.78259917E+02 -0.70239379E+02 -0.62217691E+02 -0.54222948E+02 -0.46284583E+02
 -0.38433213E+02 -0.30700470E+02 -0.23118789E+02 -0.15721178E+02 -0.85409525E+01
 -0.16114500E+01  0.50342908E+01  0.11363870E+02  0.17345888E+02  0.22950331E+02
  0.28148959E+02  0.32915714E+02  0.37227126E+02  0.41062708E+02  0.44405351E+02
  0.47241685E+02  0.49562422E+02  0.51362657E+02  0.52642120E+02  0.53405375E+02
  0.53661964E+02  0.53426474E+02  0.52718529E+02  0.51562709E+02  0.49988391E+02
  0.48029509E+02  0.45724223E+02  0.43114531E+02  0.40245811E+02  0.37166284E+02
  0.33926449E+02  0.30578465E+02  0.27175503E+02  0.23771093E+02  0.20418458E+02
  0.17169865E+02  0.14075994E+02  0.11185345E+02  0.85436910E+01  0.61935741E+01
  0.41738774E+01  0.25194832E+01  0.12607478E+01  0.42340708E+00  0.35155217E-01
 -0.21875680E-02 -0.36253874E-03  0.14058970E-03 -0.20842833E-04  0.00000000E+00
 Reciprocal Space Part
  0.72327887E+00  0.10340454E+01  0.19609244E+01  0.34877545E+01  0.55879343E+01
  0.82249161E+01  0.11352884E+02  0.14917601E+02  0.18857410E+02  0.23104365E+02
  0.27585474E+02  0.32224029E+02  0.36940992E+02  0.41656409E+02  0.46290835E+02
  0.50766733E+02  0.55009815E+02  0.58950315E+02  0.62524156E+02  0.65674001E+02
  0.68350159E+02  0.70511332E+02  0.72125204E+02  0.73168844E+02  0.73628931E+02
  0.73501796E+02  0.72793287E+02  0.71518451E+02  0.69701065E+02  0.67373005E+02
  0.64573485E+02  0.61348179E+02  0.57748244E+02  0.53829267E+02  0.49650161E+02
  0.45272031E+02  0.40757033E+02  0.36167252E+02  0.31563615E+02  0.27004862E+02
  0.22546600E+02  0.18240444E+02  0.14133270E+02  0.10266585E+02  0.66760215E+01
  0.33909744E+01  0.43436075E+00 -0.21774774E+01 -0.44347417E+01 -0.63340198E+01
 -0.78780114E+01 -0.90751469E+01 -0.99391125E+01 -0.10488295E+02 -0.10745164E+02
 -0.10735597E+02 -0.10488188E+02 -0.10033518E+02 -0.94034468E+01 -0.86304042E+01
 -0.77467179E+01 -0.67839812E+01 -0.57724750E+01 -0.47406520E+01 -0.37146931E+01
 -0.27181394E+01 -0.17716052E+01 -0.89257315E+00 -0.95271395E-01  0.60936949E+00
  0.12136834E+01  0.17131653E+01  0.21063030E+01  0.23943542E+01  0.25810753E+01
  0.26724125E+01  0.26761647E+01  0.26016286E+01  0.24592343E+01  0.22601822E+01
  0.20160897E+01  0.17386546E+01  0.14393436E+01  0.11291116E+01  0.81815605E+00
  0.51571107E+00  0.22988262E+00 -0.32472884E-01 -0.26582721E+00 -0.46601694E+00
 -0.63024031E+00 -0.75701712E+00 -0.84611561E+00 -0.89845053E+00 -0.91595745E+00
 -0.90144839E+00 -0.85845414E+00 -0.79105865E+00 -0.70373064E+00 -0.60115746E+00
 Real Space Part
  0.15609493E+03  0.15605389E+03  0.15593062E+03  0.15572467E+03  0.15543530E+03
  0.15506149E+03  0.15460193E+03  0.15405505E+03  0.15341902E+03  0.15269178E+03
  0.15187105E+03  0.15095433E+03  0.14993897E+03  0.14882215E+03  0.14760093E+03
  0.14627229E+03  0.14483312E+03  0.14328031E+03  0.14161074E+03  0.13982134E+03
  0.13790913E+03  0.13587125E+03  0.13370503E+03  0.13140800E+03  0.12897797E+03
  0.12641305E+03  0.12371173E+03  0.12087289E+03  0.11789589E+03  0.11478062E+03
  0.11152750E+03  0.10813762E+03  0.10461269E+03  0.10095518E+03  0.97168300E+02
  0.93256093E+02  0.89223452E+02  0.85076166E+02  0.80820959E+02  0.76465519E+02
  0.72018522E+02  0.67489649E+02  0.62889601E+02  0.58230096E+02  0.53523866E+02
  0.48784635E+02  0.44027090E+02  0.39266840E+02  0.34520355E+02  0.29804900E+02
  0.25138444E+02  0.20539561E+02  0.16027306E+02  0.11621084E+02  0.73404899E+01
  0.32051472E+01 -0.76548263E+00 -0.45522981E+01 -0.81367699E+01 -0.11501164E+02
 -0.14628775E+02 -0.17504158E+02 -0.20113372E+02 -0.22444210E+02 -0.24486432E+02
 -0.26231979E+02 -0.27675172E+02 -0.28812890E+02 -0.29644725E+02 -0.30173094E+02
 -0.30403328E+02 -0.30343715E+02 -0.30005495E+02 -0.29402817E+02 -0.28552648E+02
 -0.27474634E+02 -0.26190911E+02 -0.24725875E+02 -0.23105923E+02 -0.21359134E+02
 -0.19514943E+02 -0.17603780E+02 -0.15656691E+02 -0.13704959E+02 -0.11779707E+02
 -0.99115279E+01 -0.81301068E+01 -0.64638776E+01 -0.49396993E+01 -0.35825616E+01
 -0.24153313E+01 -0.14585509E+01 -0.73013115E+00 -0.24529229E+00 -0.20369320E-01
  0.12689298E-02  0.21029203E-03 -0.81549611E-04  0.12089968E-04  0.00000000E+00
 Non local Part
           1           2   1.35494720271941     
   7.55875120481184        11.1516507198671        11.1516507198671     
   16.8153690525382     
 Reciprocal Space Part
  0.00000000E+00  0.80421731E+00  0.15857766E+01  0.23225208E+01  0.29932828E+01
  0.35783519E+01  0.40599064E+01  0.44224027E+01  0.46529119E+01  0.47413965E+01
  0.46809207E+01  0.44677906E+01  0.41016211E+01  0.35853282E+01  0.29250482E+01
  0.21299857E+01  0.12121953E+01  0.18630190E+00 -0.93083206E+00 -0.21204855E+01
 -0.33624931E+01 -0.46356861E+01 -0.59183484E+01 -0.71886773E+01 -0.84252388E+01
 -0.96074062E+01 -0.10715773E+02 -0.11732530E+02 -0.12641803E+02 -0.13429935E+02
 -0.14085718E+02 -0.14600566E+02 -0.14968624E+02 -0.15186815E+02 -0.15254830E+02
 -0.15175051E+02 -0.14952425E+02 -0.14594279E+02 -0.14110098E+02 -0.13511260E+02
 -0.12810733E+02 -0.12022763E+02 -0.11162533E+02 -0.10245822E+02 -0.92886658E+01
 -0.83070206E+01 -0.73164515E+01 -0.63318382E+01 -0.53671119E+01 -0.44350252E+01
 -0.35469599E+01 -0.27127755E+01 -0.19406987E+01 -0.12372563E+01 -0.60724899E+00
 -0.53765641E-01  0.42176443E+00  0.81948546E+00  0.11409988E+01  0.13892207E+01
  0.15682201E+01  0.16830403E+01  0.17395111E+01  0.17440562E+01  0.17035013E+01
  0.16248863E+01  0.15152888E+01  0.13816593E+01  0.12306740E+01  0.10686066E+01
  0.90122067E+00  0.73368494E+00  0.57051068E+00  0.41551202E+00  0.27178781E+00
  0.14172399E+00  0.27014544E-01 -0.71301111E-01 -0.15278687E+00 -0.21754739E+00
 -0.26615726E+00 -0.29958446E+00 -0.31911115E+00 -0.32625419E+00 -0.32268795E+00
 -0.31017135E+00 -0.29048115E+00 -0.26535279E+00 -0.23642985E+00 -0.20522292E+00
 -0.17307821E+00 -0.14115571E+00 -0.11041682E+00 -0.81620530E-01 -0.55327569E-01
 -0.31911232E-01 -0.11573817E-01  0.56326400E-02  0.19782648E-01  0.31051837E-01
 Real Space Part
  0.00000000E+00 -0.14437213E+01 -0.28837600E+01 -0.43164374E+01 -0.57380829E+01
 -0.71450383E+01 -0.85336616E+01 -0.99003323E+01 -0.11241455E+02 -0.12553466E+02
 -0.13832838E+02 -0.15076084E+02 -0.16279768E+02 -0.17440506E+02 -0.18554978E+02
 -0.19619934E+02 -0.20632201E+02 -0.21588693E+02 -0.22486423E+02 -0.23322508E+02
 -0.24094183E+02 -0.24798815E+02 -0.25433907E+02 -0.25997122E+02 -0.26486286E+02
 -0.26899410E+02 -0.27234700E+02 -0.27490573E+02 -0.27665676E+02 -0.27758896E+02
 -0.27769385E+02 -0.27696566E+02 -0.27540162E+02 -0.27300201E+02 -0.26977041E+02
 -0.26571383E+02 -0.26084287E+02 -0.25517186E+02 -0.24871901E+02 -0.24150652E+02
 -0.23356070E+02 -0.22491206E+02 -0.21559536E+02 -0.20564963E+02 -0.19511822E+02
 -0.18404874E+02 -0.17249298E+02 -0.16050682E+02 -0.14815006E+02 -0.13548619E+02
 -0.12258213E+02 -0.10950793E+02 -0.96336344E+01 -0.83142382E+01 -0.70002813E+01
 -0.56995579E+01 -0.44199150E+01 -0.31691830E+01 -0.19551001E+01 -0.78523231E+00
  0.33311053E+00  0.13929617E+01  0.23877861E+01  0.33115694E+01  0.41589055E+01
  0.49250814E+01  0.56061571E+01  0.61990392E+01  0.67015454E+01  0.71124596E+01
  0.74315740E+01  0.76597187E+01  0.77987755E+01  0.78516752E+01  0.78223794E+01
  0.77158465E+01  0.75379769E+01  0.72955444E+01  0.69961150E+01  0.66479450E+01
  0.62598734E+01  0.58412018E+01  0.54015644E+01  0.49507991E+01  0.44988082E+01
  0.40554276E+01  0.36302926E+01  0.32327133E+01  0.28715565E+01  0.25551315E+01
  0.22911083E+01  0.20865963E+01  0.19467235E+01  0.18752987E+01  0.19198191E+01
  0.16139121E+01  0.11195345E+01  0.62702043E+00  0.76984700E-01  0.00000000E+00
 Reciprocal Space Part
  0.00000000E+00 -0.71058740E-01 -0.13358584E+00 -0.17926594E+00 -0.20021096E+00
 -0.18916064E+00 -0.13966777E+00 -0.46263623E-01  0.95400499E-01  0.28843884E+00
  0.53464671E+00  0.83444786E+00  0.11868748E+01  0.15895827E+01  0.20388954E+01
  0.25298839E+01  0.30564736E+01  0.36115783E+01  0.41872574E+01  0.47748925E+01
  0.53653788E+01  0.59493261E+01  0.65172662E+01  0.70598591E+01  0.75680956E+01
  0.80334900E+01  0.84482592E+01  0.88054838E+01  0.90992475E+01  0.93247533E+01
  0.94784117E+01  0.95579015E+01  0.95622017E+01  0.94915937E+01  0.93476351E+01
  0.91331061E+01  0.88519305E+01  0.85090739E+01  0.81104211E+01  0.76626379E+01
  0.71730191E+01  0.66493278E+01  0.60996298E+01  0.55321267E+01  0.49549918E+01
  0.43762127E+01  0.38034442E+01  0.32438736E+01  0.27041023E+01  0.21900444E+01
  0.17068457E+01  0.12588225E+01  0.84942161E+00  0.48120108E+00  0.15583191E+00
 -0.12588134E+00 -0.36396177E+00 -0.55920539E+00 -0.71311238E+00 -0.82780685E+00
 -0.90594775E+00 -0.95063343E+00 -0.96530266E+00 -0.95363481E+00 -0.91945146E+00
 -0.86662202E+00 -0.79897533E+00 -0.72021900E+00 -0.63386810E+00 -0.54318424E+00
 -0.45112590E+00 -0.36031043E+00 -0.27298784E+00 -0.19102608E+00 -0.11590744E+00
 -0.48735056E-01  0.97513302E-02  0.59151601E-01  0.99374883E-01  0.13060393E+00
  0.15325576E+00  0.16793997E+00  0.17541626E+00  0.17655228E+00  0.17228324E+00
  0.16357414E+00  0.15138561E+00  0.13664398E+00  0.12021612E+00  0.10288937E+00
  0.85356591E-01  0.68206304E-01  0.51917745E-01  0.36860373E-01  0.23297389E-01
  0.11392679E-01  0.12205211E-02 -0.72226092E-02 -0.14004838E-01 -0.19244966E-01
 Real Space Part
  0.00000000E+00  0.86505246E+00  0.17280390E+01  0.25868955E+01  0.34395624E+01
  0.42839857E+01  0.51181203E+01  0.59399315E+01  0.67473976E+01  0.75385130E+01
  0.83112902E+01  0.90637633E+01  0.97939915E+01  0.10500062E+02  0.11180093E+02
  0.11832241E+02  0.12454702E+02  0.13045717E+02  0.13603576E+02  0.14126629E+02
  0.14613283E+02  0.15062017E+02  0.15471381E+02  0.15840008E+02  0.16166621E+02
  0.16450039E+02  0.16689183E+02  0.16883091E+02  0.17030920E+02  0.17131959E+02
  0.17185636E+02  0.17191529E+02  0.17149374E+02  0.17059075E+02  0.16920714E+02
  0.16734559E+02  0.16501073E+02  0.16220926E+02  0.15894997E+02  0.15524387E+02
  0.15110423E+02  0.14654661E+02  0.14158897E+02  0.13625164E+02  0.13055734E+02
  0.12453121E+02  0.11820073E+02  0.11159574E+02  0.10474827E+02  0.97692537E+01
  0.90464725E+01  0.83102877E+01  0.75646673E+01  0.68137202E+01  0.60616691E+01
  0.53128206E+01  0.45715313E+01  0.38421704E+01  0.31290800E+01  0.24365318E+01
  0.17686819E+01  0.11295236E+01  0.52283934E+00 -0.47848683E-01 -0.57932645E+00
 -0.10687355E+01 -0.15136181E+01 -0.19119586E+01 -0.22622211E+01 -0.25633819E+01
 -0.28149551E+01 -0.30170119E+01 -0.31701912E+01 -0.32757022E+01 -0.33353180E+01
 -0.33513607E+01 -0.33266754E+01 -0.32645971E+01 -0.31689095E+01 -0.30437934E+01
 -0.28937710E+01 -0.27236436E+01 -0.25384232E+01 -0.23432643E+01 -0.21433897E+01
 -0.19440206E+01 -0.17503036E+01 -0.15672436E+01 -0.13996387E+01 -0.12520177E+01
 -0.11285936E+01 -0.10332987E+01 -0.96906185E+00 -0.93813863E+00 -0.96485078E+00
 -0.81375253E+00 -0.56604791E+00 -0.31787073E+00 -0.39094666E-01  0.00000000E+00
 PAW radial sets
         345   1.12492025976603     
(5E20.12)                                
 augmentation charges (non sperical)
  0.544095676688E+00  0.521677643280E+00 -0.142050947036E+00 -0.232138983917E+00 -0.238661894189E+00
 -0.332086850845E+00  0.521677643280E+00  0.500169878101E+00 -0.137651594896E+00 -0.224948561821E+00
 -0.231054862805E+00 -0.321653708844E+00 -0.142050947036E+00 -0.137651594896E+00 -0.730495873894E-01
 -0.127189989145E+00 -0.526811070675E-01 -0.119352367566E+00 -0.232138983917E+00 -0.224948561821E+00
 -0.127189989145E+00 -0.221381530191E+00 -0.929569928911E-01 -0.208522691103E+00 -0.238661894189E+00
 -0.231054862805E+00 -0.526811070675E-01 -0.929569928911E-01 -0.225929710165E-01 -0.764438683627E-01
 -0.332086850845E+00 -0.321653708844E+00 -0.119352367566E+00 -0.208522691103E+00 -0.764438683627E-01
 -0.190837639458E+00
 uccopancies in atom
  0.199999999966E+01  0.000000000000E+00  0.000000000000E+00  0.000000000000E+00  0.000000000000E+00
  0.000000000000E+00  0.000000000000E+00  0.000000000000E+00  0.000000000000E+00  0.000000000000E+00
  0.000000000000E+00  0.000000000000E+00  0.000000000000E+00  0.000000000000E+00  0.100000000208E+01
  0.000000000000E+00  0.000000000000E+00  0.000000000000E+00  0.000000000000E+00  0.000000000000E+00
  0.000000000000E+00  0.000000000000E+00  0.000000000000E+00  0.000000000000E+00  0.000000000000E+00
  0.000000000000E+00  0.000000000000E+00  0.000000000000E+00  0.000000000000E+00  0.000000000000E+00
  0.000000000000E+00  0.000000000000E+00  0.000000000000E+00  0.000000000000E+00  0.000000000000E+00
  0.000000000000E+00
 grid
  0.553248796662E-04  0.571239067343E-04  0.589814336746E-04  0.608993627570E-04  0.628796581085E-04
  0.649243477246E-04  0.670355255462E-04  0.692153536038E-04  0.714660642318E-04  0.737899623546E-04
  0.761894278469E-04  0.786669179711E-04  0.812249698936E-04  0.838662032830E-04  0.865933229932E-04
  0.894091218330E-04  0.923164834265E-04  0.953183851661E-04  0.984179012614E-04  0.101618205888E-03
  0.104922576437E-03  0.108334396873E-03  0.111857161198E-03  0.115494477030E-03  0.119250069300E-03
  0.123127784061E-03  0.127131592433E-03  0.131265594664E-03  0.135534024335E-03  0.139941252690E-03
  0.144491793117E-03  0.149190305766E-03  0.154041602325E-03  0.159050650946E-03  0.164222581332E-03
  0.169562689992E-03  0.175076445663E-03  0.180769494914E-03  0.186647667924E-03  0.192716984455E-03
  0.198983660020E-03  0.205454112240E-03  0.212134967425E-03  0.219033067354E-03  0.226155476283E-03
  0.233509488183E-03  0.241102634204E-03  0.248942690391E-03  0.257037685646E-03  0.265395909953E-03
  0.274025922863E-03  0.282936562263E-03  0.292136953427E-03  0.301636518360E-03  0.311444985446E-03
  0.321572399413E-03  0.332029131617E-03  0.342825890666E-03  0.353973733384E-03  0.365484076137E-03
  0.377368706522E-03  0.389639795438E-03  0.402309909553E-03  0.415392024172E-03  0.428899536521E-03
  0.442846279476E-03  0.457246535718E-03  0.472115052369E-03  0.487467056089E-03  0.503318268671E-03
  0.519684923143E-03  0.536583780388E-03  0.554032146314E-03  0.572047889570E-03  0.590649459854E-03
  0.609855906799E-03  0.629686899483E-03  0.650162746578E-03  0.671304417139E-03  0.693133562085E-03
  0.715672536367E-03  0.738944421865E-03  0.762973051023E-03  0.787783031257E-03  0.813399770155E-03
  0.839849501497E-03  0.867159312117E-03  0.895357169649E-03  0.924471951163E-03  0.954533472740E-03
  0.985572520003E-03  0.101762087965E-02  0.105071137200E-02  0.108487788462E-02  0.112015540699E-02
  0.115658006637E-02  0.119418916482E-02  0.123302121732E-02  0.127311599130E-02  0.131451454730E-02
  0.135725928106E-02  0.140139396694E-02  0.144696380269E-02  0.149401545582E-02  0.154259711133E-02
  0.159275852108E-02  0.164455105474E-02  0.169802775239E-02  0.175324337883E-02  0.181025447971E-02
  0.186911943935E-02  0.192989854064E-02  0.199265402667E-02  0.205745016456E-02  0.212435331120E-02
  0.219343198127E-02  0.226475691735E-02  0.233840116243E-02  0.241444013463E-02  0.249295170452E-02
  0.257401627480E-02  0.265771686267E-02  0.274413918485E-02  0.283337174535E-02  0.292550592611E-02
  0.302063608058E-02  0.311885963036E-02  0.322027716493E-02  0.332499254473E-02  0.343311300744E-02
  0.354474927787E-02  0.366001568132E-02  0.377903026066E-02  0.390191489721E-02  0.402879543558E-02
  0.415980181253E-02  0.429506819003E-02  0.443473309269E-02  0.457893954956E-02  0.472783524065E-02
  0.488157264817E-02  0.504030921265E-02  0.520420749422E-02  0.537343533902E-02  0.554816605116E-02
  0.572857857016E-02  0.591485765421E-02  0.610719406936E-02  0.630578478491E-02  0.651083317511E-02
  0.672254922742E-02  0.694114975758E-02  0.716685863165E-02  0.739990699523E-02  0.764053351020E-02
  0.788898459915E-02  0.814551469771E-02  0.841038651510E-02  0.868387130323E-02  0.896624913440E-02
  0.925780918819E-02  0.955885004758E-02  0.986968000472E-02  0.101906173766E-01  0.105219908312E-01
  0.108641397239E-01  0.112174144450E-01  0.115821767787E-01  0.119588002736E-01  0.123476706249E-01
  0.127491860700E-01  0.131637577957E-01  0.135918103596E-01  0.140337821251E-01  0.144901257098E-01
  0.149613084494E-01  0.154478128763E-01  0.159501372135E-01  0.164687958849E-01  0.170043200425E-01
  0.175572581097E-01  0.181281763434E-01  0.187176594138E-01  0.193263110031E-01  0.199547544237E-01
  0.206036332565E-01  0.212736120102E-01  0.219653768016E-01  0.226796360583E-01  0.234171212441E-01
  0.241785876084E-01  0.249648149593E-01  0.257766084621E-01  0.266147994645E-01  0.274802463473E-01
  0.283738354037E-01  0.292964817470E-01  0.302491302476E-01  0.312327565009E-01  0.322483678261E-01
  0.332970042980E-01  0.343797398119E-01  0.354976831836E-01  0.366519792849E-01  0.378438102157E-01
  0.390743965152E-01  0.403449984111E-01  0.416569171110E-01  0.430114961342E-01  0.444101226879E-01
  0.458542290880E-01  0.473452942256E-01  0.488848450818E-01  0.504744582910E-01  0.521157617563E-01
  0.538104363157E-01  0.555602174641E-01  0.573668971302E-01  0.592323255120E-01  0.611584129710E-01
  0.631471319893E-01  0.652005191887E-01  0.673206774174E-01  0.695097779024E-01  0.717700624741E-01
  0.741038458614E-01  0.765135180623E-01  0.790015467918E-01  0.815704800087E-01  0.842229485251E-01
  0.869616687006E-01  0.897894452239E-01  0.927091739853E-01  0.957238450423E-01  0.988365456812E-01
  0.102050463580E+00  0.105368890071E+00  0.108795223512E+00  0.112332972770E+00  0.115985760808E+00
  0.119757328401E+00  0.123651537962E+00  0.127672377504E+00  0.131823964717E+00  0.136110551189E+00
  0.140536526759E+00  0.145106424014E+00  0.149824922926E+00  0.154696855652E+00  0.159727211477E+00
  0.164921141923E+00  0.170283966031E+00  0.175821175799E+00  0.181538441816E+00  0.187441619061E+00
  0.193536752903E+00  0.199830085293E+00  0.206328061151E+00  0.213037334974E+00  0.219964777644E+00
  0.227117483468E+00  0.234502777442E+00  0.242128222752E+00  0.250001628519E+00  0.258131057801E+00
  0.266524835842E+00  0.275191558606E+00  0.284140101573E+00  0.293379628833E+00  0.302919602470E+00
  0.312769792250E+00  0.322940285629E+00  0.333441498080E+00  0.344284183763E+00  0.355479446535E+00
  0.367038751324E+00  0.378973935867E+00  0.391297222837E+00  0.404021232357E+00  0.417158994923E+00
  0.430723964754E+00  0.444730033563E+00  0.459191544788E+00  0.474123308282E+00  0.489540615474E+00
  0.505459255035E+00  0.521895529042E+00  0.538866269677E+00  0.556388856460E+00  0.574481234051E+00
  0.593161930627E+00  0.612450076853E+00  0.632365425476E+00  0.652928371554E+00  0.674159973340E+00
  0.696081973849E+00  0.718716823127E+00  0.742087701236E+00  0.766218541998E+00  0.791134057502E+00
  0.816859763414E+00  0.843422005104E+00  0.870847984630E+00  0.899165788590E+00  0.928404416890E+00
  0.958593812442E+00  0.989764891823E+00  0.102194957694E+01  0.105518082773E+01  0.108949267590E+01
  0.112492025977E+01  0.116149986028E+01  0.119926893815E+01  0.123826617221E+01  0.127853149903E+01
  0.132010615383E+01  0.136303271269E+01  0.140735513616E+01  0.145311881427E+01  0.150037061302E+01
  0.154915892239E+01  0.159953370587E+01  0.165154655163E+01  0.170525072539E+01  0.176070122489E+01
  0.181795483632E+01  0.187707019235E+01  0.193810783229E+01  0.200113026401E+01  0.206620202798E+01
  0.213338976339E+01  0.220276227634E+01  0.227439061034E+01  0.234834811908E+01  0.242471054150E+01
  0.250355607940E+01  0.258496547749E+01  0.266902210612E+01  0.275581204662E+01  0.284542417946E+01
  0.293795027531E+01  0.303348508898E+01  0.313212645645E+01  0.323397539511E+01  0.333913620718E+01
 aepotential
  0.967429077526E+04  0.981443401460E+04  0.994505249893E+04  0.100652529730E+05  0.101741782593E+05
  0.102710159182E+05  0.103550073065E+05  0.104254593539E+05  0.104817538062E+05  0.105233573953E+05
  0.105498293392E+05  0.105608303774E+05  0.105561274706E+05  0.105355989190E+05  0.104992388283E+05
  0.104471563537E+05  0.103795772148E+05  0.102968403804E+05  0.101993953635E+05  0.100877952319E+05
  0.996269082658E+04  0.982482131310E+04  0.967500459677E+04  0.951412664488E+04  0.934312979965E+04
  0.916300045237E+04  0.897475725478E+04  0.877943811002E+04  0.857808841886E+04  0.837174939428E+04
  0.816144705995E+04  0.794818213109E+04  0.773292107411E+04  0.751658765338E+04  0.730005703797E+04
  0.708414880081E+04  0.686962406466E+04  0.665718113194E+04  0.644745408515E+04  0.624101157979E+04
  0.603835700684E+04  0.583992932689E+04  0.564610478907E+04  0.545719930550E+04  0.527347135383E+04
  0.509512529104E+04  0.492231503825E+04  0.475514794388E+04  0.459368880285E+04  0.443796390984E+04
  0.428796509193E+04  0.414365365422E+04  0.400496418870E+04  0.387180820595E+04  0.374407755939E+04
  0.362164763913E+04  0.350438032255E+04  0.339212667298E+04  0.328472938555E+04  0.318202498337E+04
  0.308384577224E+04  0.299002156095E+04  0.290038116616E+04  0.281475370809E+04  0.273296971958E+04
  0.265486207859E+04  0.258026678743E+04  0.250902360072E+04  0.244097654088E+04  0.237597428182E+04
  0.231387044749E+04  0.225452384064E+04  0.219779854018E+04  0.214356398418E+04  0.209169503530E+04
  0.204207186338E+04  0.199457996645E+04  0.194910999737E+04  0.190555771520E+04  0.186382379395E+04
  0.182381367193E+04  0.178543741338E+04  0.174860951423E+04  0.171324871038E+04  0.167927782690E+04
  0.164662358068E+04  0.161521639146E+04  0.158499023079E+04  0.155588241069E+04  0.152783345749E+04
  0.150078691205E+04  0.147468919075E+04  0.144948942884E+04  0.142513932868E+04  0.140159303108E+04
  0.137880697086E+04  0.135673975580E+04  0.133535204299E+04  0.131460642640E+04  0.129446732648E+04
  0.127490088548E+04  0.125587487468E+04  0.123735859626E+04  0.121932280166E+04  0.120173960568E+04
  0.118458241214E+04  0.116782583925E+04  0.115144565113E+04  0.113541869527E+04  0.111972283954E+04
  0.110433691825E+04  0.108924067429E+04  0.107441471598E+04  0.105984046575E+04  0.104550011231E+04
  0.103137658263E+04  0.101745348820E+04  0.100371510329E+04  0.990146318963E+03  0.976732625254E+03
  0.963460070479E+03  0.950315244142E+03  0.937285246133E+03  0.924357669269E+03  0.911520574317E+03
  0.898762474130E+03  0.886072315941E+03  0.873439464816E+03  0.860853692869E+03  0.848305163117E+03
  0.835784422721E+03  0.823282391756E+03  0.810790356395E+03  0.798299963200E+03  0.785803214027E+03
  0.773292463110E+03  0.760760416224E+03  0.748200129404E+03  0.735605011292E+03  0.722968825992E+03
  0.710285697279E+03  0.697550115289E+03  0.684756944154E+03  0.671901431837E+03  0.658979221760E+03
  0.645986366273E+03  0.632919342413E+03  0.619775069889E+03  0.606550931166E+03  0.593244794661E+03
  0.579855040163E+03  0.566380587438E+03  0.552820928067E+03  0.539176160328E+03  0.525447027942E+03
  0.511634962128E+03  0.497742127659E+03  0.483771472431E+03  0.469726780768E+03  0.455612729661E+03
  0.441434947860E+03  0.427200076211E+03  0.412915828320E+03  0.398591048936E+03  0.384235767626E+03
  0.369861243731E+03  0.355479997969E+03  0.341105824686E+03  0.326753777900E+03  0.312440123018E+03
  0.298182245851E+03  0.283998510664E+03  0.269908060565E+03  0.255930557476E+03  0.242085865282E+03
  0.228393690933E+03  0.214873213904E+03  0.201542756370E+03  0.188419573617E+03  0.175519874650E+03
  0.162859210723E+03  0.150453383365E+03  0.138320005899E+03  0.126480779707E+03  0.114964394020E+03
  0.103809713570E+03  0.930686018231E+02  0.828074167278E+02  0.731060510987E+02  0.640535619157E+02
  0.557400421207E+02  0.482454340217E+02  0.416271048782E+02  0.359087573339E+02  0.310731849956E+02
  0.270604666360E+02  0.237718362319E+02  0.210782782114E+02  0.188322292037E+02  0.168805169085E+02
  0.150765746593E+02  0.132900708489E+02  0.114126709675E+02  0.935973697148E+01  0.706887645183E+01
  0.449679273454E+01  0.161571927132E+01 -0.158982701791E+01 -0.512573550628E+01 -0.899046174258E+01
 -0.131767433072E+02 -0.176729327178E+02 -0.224639824986E+02 -0.275321098779E+02 -0.328571818282E+02
 -0.384168710352E+02 -0.441866441161E+02 -0.501396461104E+02 -0.562465472095E+02 -0.624754208850E+02
 -0.687917220020E+02 -0.751584316522E+02 -0.815364146702E+02 -0.878849887122E+02 -0.941626084283E+02
 -0.100327420178E+03 -0.106337256580E+03 -0.112148494771E+03 -0.117713259348E+03 -0.122974955565E+03
 -0.127863251861E+03 -0.132291237539E+03 -0.136158733658E+03 -0.139365319925E+03 -0.141833682512E+03
 -0.143538882016E+03 -0.144533331578E+03 -0.144952625999E+03 -0.144989912875E+03 -0.144844204237E+03
 -0.144671185146E+03 -0.144565157819E+03 -0.144573355018E+03 -0.144721426026E+03 -0.145031208065E+03
 -0.145526026208E+03 -0.146228166714E+03 -0.147154612829E+03 -0.148314549051E+03 -0.149709272090E+03
 -0.151333622181E+03 -0.153177818250E+03 -0.155228980094E+03 -0.157472065224E+03 -0.159890231313E+03
 -0.162464737958E+03 -0.165174520889E+03 -0.167995565907E+03 -0.170900229671E+03 -0.173856722227E+03
 -0.176829078243E+03 -0.179778073087E+03 -0.182663580250E+03 -0.185448636062E+03 -0.188104671706E+03
 -0.190615664653E+03 -0.192976348281E+03 -0.195177368162E+03 -0.197173074738E+03 -0.198843084493E+03
 -0.199985902945E+03 -0.200393351378E+03 -0.200001490646E+03 -0.199000002717E+03 -0.197742301788E+03
 -0.196508799138E+03 -0.195385689186E+03 -0.194333597039E+03 -0.193291255501E+03 -0.192220505337E+03
 -0.191107465571E+03 -0.189950839749E+03 -0.188751652644E+03 -0.187507883329E+03 -0.186213281078E+03
 -0.184858481547E+03 -0.183432790258E+03 -0.181925728616E+03 -0.180328058186E+03 -0.178632317063E+03
 -0.176833020049E+03 -0.174926651391E+03 -0.172911553886E+03 -0.170787767237E+03 -0.168556853223E+03
 -0.166221725747E+03 -0.163786477032E+03 -0.161256238742E+03 -0.158637009882E+03 -0.155935548407E+03
 -0.153159228623E+03 -0.150315922155E+03 -0.147413878216E+03 -0.144461607638E+03 -0.141467768620E+03
 -0.138441056574E+03 -0.135390097701E+03 -0.132323350684E+03 -0.129249015308E+03 -0.126174953524E+03
 -0.123108620668E+03 -0.120057010069E+03 -0.117026609662E+03 -0.114023371006E+03 -0.111052690310E+03
 -0.108119398946E+03 -0.105227765774E+03 -0.102381505521E+03 -0.995837951932E+02 -0.968372945986E+02
 -0.941441699878E+02 -0.915061189871E+02 -0.889243970072E+02 -0.863998419630E+02 -0.839329036075E+02
 -0.815236741767E+02 -0.791719248182E+02 -0.768771501439E+02 -0.746386211682E+02 -0.724554483593E+02
 -0.703266460007E+02 -0.682512071489E+02 -0.662281666142E+02 -0.642566600447E+02 -0.623359666531E+02
 -0.604655333413E+02 -0.586449772755E+02 -0.568740659915E+02 -0.551526759835E+02 -0.534807327882E+02
 -0.518581378616E+02 -0.502846899106E+02 -0.487600102836E+02 -0.472834827670E+02 -0.458542169412E+02
 core charge-density
  0.104435413911E-01  0.110870848835E-01  0.117701582548E-01  0.124951776265E-01  0.132647056425E-01
  0.140814602450E-01  0.149483239643E-01  0.158683537538E-01  0.168447913999E-01  0.178810745394E-01
  0.189808483179E-01  0.201479777271E-01  0.213865606558E-01  0.227009416968E-01  0.240957267506E-01
  0.255757984690E-01  0.271463325862E-01  0.288128151838E-01  0.305810609425E-01  0.324572324319E-01
  0.344478604950E-01  0.365598657857E-01  0.388005815202E-01  0.411777775067E-01  0.436996855191E-01
  0.463750260861E-01  0.492130367675E-01  0.522235019938E-01  0.554167845494E-01  0.588038587807E-01
  0.623963456164E-01  0.662065494877E-01  0.702474972432E-01  0.745329791536E-01  0.790775921060E-01
  0.838967850919E-01  0.890069070950E-01  0.944252574894E-01  0.100170139062E+00  0.106260913775E+00
  0.112718061392E+00  0.119563241081E+00  0.126819356141E+00  0.134510621950E+00  0.142662637297E+00
  0.151302459205E+00  0.160458681400E+00  0.170161516540E+00  0.180442882366E+00  0.191336491878E+00
  0.202877947708E+00  0.215104840789E+00  0.228056853476E+00  0.241775867232E+00  0.256306075008E+00
  0.271694098431E+00  0.287989109914E+00  0.305242959775E+00  0.323510308479E+00  0.342848764049E+00
  0.363319024732E+00  0.384985026954E+00  0.407914098589E+00  0.432177117542E+00  0.457848675628E+00
  0.485007247677E+00  0.513735365803E+00  0.544119798680E+00  0.576251735687E+00  0.610226975678E+00
  0.646146120146E+00  0.684114770417E+00  0.724243728515E+00  0.766649201226E+00  0.811453006825E+00
  0.858782783839E+00  0.908772201147E+00  0.961561168570E+00  0.101729604705E+01  0.107612985734E+01
  0.113822248607E+01  0.120374088779E+01  0.127285928158E+01  0.134575934055E+01  0.142263037245E+01
  0.150366948929E+01  0.158908176387E+01  0.167908037071E+01  0.177388670874E+01  0.187373050288E+01
  0.197884988125E+01  0.208949142472E+01  0.220591018497E+01  0.232836966701E+01  0.245714177201E+01
  0.259250669560E+01  0.273475277673E+01  0.288417629187E+01  0.304108118867E+01  0.320577875329E+01
  0.337858720495E+01  0.355983121093E+01  0.374984131511E+01  0.394895327262E+01  0.415750728286E+01
  0.437584711311E+01  0.460431910428E+01  0.484327105069E+01  0.509305094492E+01  0.535400557947E+01
  0.562647899614E+01  0.591081077474E+01  0.620733415247E+01  0.651637396581E+01  0.683824440706E+01
  0.717324658820E+01  0.752166590547E+01  0.788376919909E+01  0.825980170336E+01  0.864998378405E+01
  0.905450746128E+01  0.947353271827E+01  0.990718359821E+01  0.103555440942E+02  0.108186538400E+02
  0.112965036127E+02  0.117890306614E+02  0.122961138814E+02  0.128175688561E+02  0.133531427952E+02
  0.139025094022E+02  0.144652637105E+02  0.150409169334E+02  0.156288913802E+02  0.162285154969E+02
  0.168390190985E+02  0.174595288671E+02  0.180890641965E+02  0.187265334753E+02  0.193707309051E+02
  0.200203339598E+02  0.206739016005E+02  0.213298733662E+02  0.219865694673E+02  0.226421920152E+02
  0.232948275261E+02  0.239424508372E+02  0.245829305795E+02  0.252140363457E+02  0.258334476909E+02
  0.264387650976E+02  0.270275230252E+02  0.275972051514E+02  0.281452618978E+02  0.286691303050E+02
  0.291662563020E+02  0.296341193766E+02  0.300702596206E+02  0.304723070782E+02  0.308380132782E+02
  0.311652847754E+02  0.314522184668E+02  0.316971383845E+02  0.318986335953E+02  0.320555967650E+02
  0.321672628685E+02  0.322332474504E+02  0.322535837602E+02  0.322287580134E+02  0.321597419567E+02
  0.320480218494E+02  0.318956229198E+02  0.317051283072E+02  0.314796914770E+02  0.312230410810E+02
  0.309394772512E+02  0.306338583500E+02  0.303115772669E+02  0.299785264462E+02  0.296410509638E+02
  0.293058891316E+02  0.289801003140E+02  0.286709798736E+02  0.283859614390E+02  0.281325069881E+02
  0.279179855763E+02  0.277495418971E+02  0.276339562397E+02  0.275774978035E+02  0.275857737350E+02
  0.276635766455E+02  0.278147337763E+02  0.280419613402E+02  0.283467278983E+02  0.287291308955E+02
  0.291877906560E+02  0.297197662124E+02  0.303204972956E+02  0.309837766286E+02  0.317017563369E+02
  0.324649918043E+02  0.332625256522E+02  0.340820137303E+02  0.349098940735E+02  0.357315987249E+02
  0.365318071524E+02  0.372947386972E+02  0.380044801203E+02  0.386453428711E+02  0.392022432582E+02
  0.396610972872E+02  0.400092206105E+02  0.402357228569E+02  0.403318846358E+02  0.402915048003E+02
  0.401112051663E+02  0.397906798753E+02  0.393328770233E+02  0.387441010823E+02  0.380340260736E+02
  0.372156114145E+02  0.363049148553E+02  0.353207999357E+02  0.342845388507E+02  0.332193154435E+02
  0.321496371182E+02  0.311006686099E+02  0.300975045829E+02  0.291644017192E+02  0.283239940873E+02
  0.275965179495E+02  0.269990736426E+02  0.265449527197E+02  0.262430582086E+02  0.260974447374E+02
  0.261070033669E+02  0.262653132263E+02  0.265606779050E+02  0.269763579635E+02  0.274910009657E+02
  0.280792580405E+02  0.287125649973E+02  0.293600595005E+02  0.299896027451E+02  0.305688712142E+02
  0.310664799508E+02  0.314530944601E+02  0.317024857683E+02  0.317924835023E+02  0.317057853614E+02
  0.314305875023E+02  0.309610084312E+02  0.302972882349E+02  0.294457548716E+02  0.284185592677E+02
  0.272331907761E+02  0.259117937286E+02  0.244803140607E+02  0.229675119977E+02  0.214038823606E+02
  0.198205280036E+02  0.182480340878E+02  0.167153911980E+02  0.152490135173E+02  0.138718941589E+02
  0.126029330369E+02  0.114564629235E+02  0.104419866405E+02  0.956412324839E+01  0.882274509754E+01
  0.821327765700E+01  0.772713629497E+01  0.735229187311E+01  0.707397564849E+01  0.687552117946E+01
  0.673928168812E+01  0.664751150797E+01  0.658312974794E+01  0.653035062305E+01  0.647519132942E+01
  0.640586016799E+01  0.631301860207E+01  0.618991167973E+01  0.603236774198E+01  0.583867659970E+01
  0.560936309865E+01  0.534687880182E+01  0.505523773360E+01  0.473962276082E+01  0.440598767255E+01
  0.406067684976E+01  0.371008025575E+01  0.336033674749E+01  0.301709392458E+01  0.268532798991E+01
  0.236922341309E+01  0.207210862311E+01  0.179644147170E+01  0.154383704184E+01  0.131512831402E+01
  0.111045141429E+01  0.929346631631E+00  0.770867378961E+00  0.633690392366E+00  0.516221684329E+00
  0.416694072495E+00  0.333253379690E+00  0.264031575671E+00  0.207206156173E+00  0.161045902193E+00
  0.123943819505E+00  0.944385285896E-01  0.712256717595E-01  0.531610493489E-01  0.392572160206E-01
  0.286751898182E-01  0.207127776048E-01  0.147908264289E-01  0.104384930622E-01  0.727840157912E-02
  0.501234540049E-02  0.340799570821E-02  0.228690892028E-02  0.151398530054E-02  0.988419101837E-03
  0.636097404420E-03  0.403346393840E-03  0.251887483174E-03  0.154847218856E-03  0.936603829331E-04
  0.557113938297E-04  0.325716640563E-04  0.187071658526E-04  0.105488250316E-04  0.583680562636E-05
  0.316707919292E-05  0.168415678068E-05  0.877127195106E-06  0.447099577729E-06  0.222895249091E-06
  0.108600835214E-06  0.516737174729E-07  0.239919866586E-07  0.108609032701E-07  0.478960718362E-08
 kinetic energy-density
  0.543906854002E+05  0.544392672433E+05  0.544954891514E+05  0.545595745161E+05  0.546317536577E+05
  0.547122637809E+05  0.548013497471E+05  0.548992643278E+05  0.550062688237E+05  0.551226333779E+05
  0.552486381438E+05  0.553845731665E+05  0.555307393590E+05  0.556874497063E+05  0.558550291999E+05
  0.560338160264E+05  0.562241623067E+05  0.564264351828E+05  0.566410171545E+05  0.568683074459E+05
  0.571087228057E+05  0.573626981432E+05  0.576306878376E+05  0.579131665555E+05  0.582106301049E+05
  0.585235967192E+05  0.588526079023E+05  0.591982293486E+05  0.595610521873E+05  0.599416937293E+05
  0.603407995157E+05  0.607590427818E+05  0.611971271476E+05  0.616557874640E+05  0.621357901770E+05
  0.626379359908E+05  0.631630602330E+05  0.637120346634E+05  0.642857688449E+05  0.648852119358E+05
  0.655113541063E+05  0.661652282989E+05  0.668479121229E+05  0.675605297691E+05  0.683042539388E+05
  0.690803080449E+05  0.698899683561E+05  0.707345663870E+05  0.716154912986E+05  0.725341924701E+05
  0.734921821595E+05  0.744910383081E+05  0.755324074505E+05  0.766180077553E+05  0.777496321964E+05
  0.789291518449E+05  0.801585192922E+05  0.814397722172E+05  0.827750370571E+05  0.841665328423E+05
  0.856165751311E+05  0.871275801116E+05  0.887020687803E+05  0.903426713214E+05  0.920521315353E+05
  0.938333114333E+05  0.956891959672E+05  0.976228977678E+05  0.996376621929E+05  0.101736872209E+06
  0.103924053451E+06  0.106202879636E+06  0.108577177753E+06  0.111050932863E+06  0.113628294167E+06
  0.116313579741E+06  0.119111282280E+06  0.122026073966E+06  0.125062811758E+06  0.128226542976E+06
  0.131522509439E+06  0.134956152821E+06  0.138533119217E+06  0.142259263138E+06  0.146140651527E+06
  0.150183567637E+06  0.154394513666E+06  0.158780213877E+06  0.163347616120E+06  0.168103893324E+06
  0.173056444123E+06  0.178212892217E+06  0.183581085245E+06  0.189169092130E+06  0.194985199375E+06
  0.201037906008E+06  0.207335916985E+06  0.213888134693E+06  0.220703648950E+06  0.227791724788E+06
  0.235161787996E+06  0.242823408378E+06  0.250786280298E+06  0.259060200445E+06  0.267655042500E+06
  0.276580728523E+06  0.285847196902E+06  0.295464366280E+06  0.305442095699E+06  0.315790140252E+06
  0.326518102319E+06  0.337635377835E+06  0.349151097250E+06  0.361074062264E+06  0.373412674948E+06
  0.386174863079E+06  0.399367998121E+06  0.412998807581E+06  0.427073280548E+06  0.441596567018E+06
  0.456572870335E+06  0.472005333075E+06  0.487895915964E+06  0.504245270613E+06  0.521052605302E+06
  0.538315544785E+06  0.556029983973E+06  0.574189936083E+06  0.592787376038E+06  0.611812079135E+06
  0.631251456429E+06  0.651090387383E+06  0.671311051217E+06  0.691892757811E+06  0.712811780121E+06
  0.734041189273E+06  0.755550694731E+06  0.777306491226E+06  0.799271114589E+06  0.821403309882E+06
  0.843657913156E+06  0.865985751206E+06  0.888333561296E+06  0.910643934948E+06  0.932855288843E+06
  0.954901866706E+06  0.976713775765E+06  0.998217061694E+06  0.101933382592E+07  0.103998238884E+07
  0.106007750317E+07  0.107953062039E+07  0.109825021407E+07  0.111614216274E+07  0.113311019505E+07
  0.114905639904E+07  0.116388179703E+07  0.117748698648E+07  0.118977284680E+07  0.120064131050E+07
  0.120999619639E+07  0.121774410099E+07  0.122379534319E+07  0.122806495564E+07  0.123047371456E+07
  0.123094919866E+07  0.122942686562E+07  0.122585113328E+07  0.122017645107E+07  0.121236834545E+07
  0.120240442224E+07  0.119027530684E+07  0.117598550302E+07  0.115955414979E+07  0.114101565594E+07
  0.112042019163E+07  0.109783401734E+07  0.107333963145E+07  0.104703571950E+07  0.101903689042E+07
  0.989473188005E+06  0.958489369146E+06  0.926243943920E+06  0.892907976849E+06  0.858663652340E+06
  0.823702611595E+06  0.788224072182E+06  0.752432745909E+06  0.716536576343E+06  0.680744319898E+06
  0.645263012718E+06  0.610295357122E+06  0.576037086092E+06  0.542674360412E+06  0.510381258128E+06
  0.479317413060E+06  0.449625853243E+06  0.421431082837E+06  0.394837444128E+06  0.369927790505E+06
  0.346762496708E+06  0.325378828586E+06  0.305790690427E+06  0.287988762988E+06  0.271941039476E+06
  0.257593759184E+06  0.244872730292E+06  0.233685023849E+06  0.223921011716E+06  0.215456711961E+06
  0.208156396914E+06  0.201875411908E+06  0.196463146658E+06  0.191766097130E+06  0.187630952535E+06
  0.183907640770E+06  0.180452265585E+06  0.177129869925E+06  0.173816962565E+06  0.170403749063E+06
  0.166796012923E+06  0.162916599722E+06  0.158706464371E+06  0.154125251545E+06  0.149151390165E+06
  0.143781696082E+06  0.138030491334E+06  0.131928263926E+06  0.125519907093E+06  0.118862590163E+06
  0.112023323025E+06  0.105076283304E+06  0.980999817562E+05  0.911743521767E+05  0.843778673728E+05
  0.777848033939E+05  0.714627755082E+05  0.654706677265E+05  0.598570343277E+05  0.546590094755E+05
  0.499017060804E+05  0.455980631052E+05  0.417491088067E+05  0.383446219098E+05  0.353641688248E+05
  0.327784748879E+05  0.305510654322E+05  0.286400962904E+05  0.270002838411E+05  0.255848414702E+05
  0.243473322941E+05  0.232433573106E+05  0.222320124419E+05  0.212770658330E+05  0.203478258817E+05
  0.194196893935E+05  0.184743766525E+05  0.174998744204E+05  0.164901195811E+05  0.154444633901E+05
  0.143669610686E+05  0.132655329352E+05  0.121510432862E+05  0.110363426562E+05  0.993531906610E+04
  0.886200419702E+04  0.782978199738E+04  0.685074095797E+04  0.593519743044E+04  0.509138795435E+04
  0.432528181800E+04  0.364045424967E+04  0.303800405389E+04  0.251658958600E+04  0.207268890955E+04
  0.170107547795E+04  0.139535005249E+04  0.114837838536E+04  0.952632897923E+03  0.800486948156E+03
  0.684482802040E+03  0.597566728894E+03  0.533279988681E+03  0.485898815723E+03  0.450521313643E+03
  0.423102972727E+03  0.400445691826E+03  0.380147711008E+03  0.360523611035E+03  0.340504244579E+03
  0.319526217847E+03  0.297419621813E+03  0.274300821419E+03  0.250476154062E+03  0.226359187152E+03
  0.202403837111E+03  0.179053354838E+03  0.156704464459E+03  0.135684437908E+03  0.116240288682E+03
  0.985360580216E+02  0.826571461323E+02  0.686190583107E+02  0.563788021831E+02  0.458474204565E+02
  0.369024902787E+02  0.293997508270E+02  0.231833172040E+02  0.180941879362E+02  0.139769525796E+02
  0.106847536751E+02  0.808265899758E+01  0.604966118448E+01  0.447955016406E+01  0.328090706340E+01
  0.237645344875E+01  0.170196366744E+01  0.120491555316E+01  0.843020396516E+00  0.582739617872E+00
  0.397865177665E+00  0.268214542516E+00  0.178469520198E+00  0.117171453768E+00  0.758729352321E-01
  0.484374540170E-01  0.304732087923E-01  0.188843474407E-01  0.115220249708E-01  0.691809856892E-02
  0.408560167306E-02  0.237196988241E-02  0.135304107131E-02  0.757911179151E-03  0.416658002249E-03
  0.224664741380E-03  0.118744640782E-03  0.614804090648E-04  0.311610119014E-04  0.154502214026E-04
  0.748840875706E-05  0.354524146719E-05  0.163817146110E-05  0.738196376558E-06  0.324124126728E-06
 mkinetic energy-density pseudized
  0.371512455566E-05  0.396066604693E-05  0.422243596403E-05  0.450150688253E-05  0.479902226704E-05
  0.511620115652E-05  0.545434315911E-05  0.581483377718E-05  0.619915008425E-05  0.660886677716E-05
  0.704566262824E-05  0.751132736389E-05  0.800776899780E-05  0.853702164885E-05  0.910125387569E-05
  0.970277756220E-05  0.103440573902E-04  0.110277209381E-04  0.117565694474E-04  0.125335893002E-04
  0.133619642558E-04  0.142450884957E-04  0.151865805310E-04  0.161902980286E-04  0.172603536181E-04
  0.184011317423E-04  0.196173066223E-04  0.209138614097E-04  0.222961086044E-04  0.237697118218E-04
  0.253407089993E-04  0.270155371358E-04  0.288010586667E-04  0.307045895819E-04  0.327339294024E-04
  0.348973931379E-04  0.372038453569E-04  0.396627365078E-04  0.422841416415E-04  0.450788016926E-04
  0.480581674893E-04  0.512344466718E-04  0.546206537118E-04  0.582306632377E-04  0.620792668844E-04
  0.661822339005E-04  0.705563757605E-04  0.752196150484E-04  0.801910588929E-04  0.854910772570E-04
  0.911413864011E-04  0.971651378631E-04  0.103587013319E-03  0.110433325712E-03  0.117732127068E-03
  0.125513323435E-03  0.133808797418E-03  0.142652538815E-03  0.152080783885E-03  0.162132163823E-03
  0.172847863042E-03  0.184271787926E-03  0.196450746725E-03  0.209434641348E-03  0.223276671830E-03
  0.238033554307E-03  0.253765753404E-03  0.270537729980E-03  0.288418205248E-03  0.307480442342E-03
  0.327802546509E-03  0.349467785125E-03  0.372564928872E-03  0.397188615460E-03  0.423439737386E-03
  0.451425855320E-03  0.481261638819E-03  0.513069336156E-03  0.546979275210E-03  0.583130397456E-03
  0.621670827244E-03  0.662758478706E-03  0.706561702771E-03  0.753259976939E-03  0.803044640643E-03
  0.856119679212E-03  0.912702559640E-03  0.973025121597E-03  0.103733452731E-02  0.110589427426E-02
  0.117898527472E-02  0.125690700674E-02  0.133997874116E-02  0.142854084962E-02  0.152295619920E-02
  0.162361163902E-02  0.173091958524E-02  0.184531971072E-02  0.196728074637E-02  0.209730240152E-02
  0.223591741120E-02  0.238369371875E-02  0.254123680256E-02  0.270919215670E-02  0.288824793533E-02
  0.307913777197E-02  0.328264378495E-02  0.349959978159E-02  0.373089467394E-02  0.397747612035E-02
  0.424035440759E-02  0.452060658947E-02  0.481938089894E-02  0.513790145168E-02  0.547747326042E-02
  0.583948758061E-02  0.622542760919E-02  0.663687455990E-02  0.707551413987E-02  0.754314345412E-02
  0.804167836612E-02  0.857316134456E-02  0.913976982843E-02  0.974382514461E-02  0.103878020145E-01
  0.110743386882E-01  0.118062477489E-01  0.125865276292E-01  0.134183748895E-01  0.143051973062E-01
  0.152506278243E-01  0.162585394314E-01  0.173330610132E-01  0.184785942560E-01  0.196998316652E-01
  0.210017757720E-01  0.223897596089E-01  0.238694685358E-01  0.254469635059E-01  0.271287058672E-01
  0.289215838000E-01  0.308329404978E-01  0.328706042071E-01  0.350429202482E-01  0.373587851467E-01
  0.398276830156E-01  0.424597243344E-01  0.452656872850E-01  0.482570618097E-01  0.514460965720E-01
  0.548458490101E-01  0.584702386855E-01  0.623341041436E-01  0.664532635160E-01  0.708445791095E-01
  0.755260262429E-01  0.805167666099E-01  0.858372264626E-01  0.915091799328E-01  0.975558378238E-01
  0.104001942232E+00  0.110873867374E+00  0.118199727034E+00  0.126009489041E+00  0.134335097259E+00
  0.143210601554E+00  0.152672296274E+00  0.162758867774E+00  0.173511551589E+00  0.184974299863E+00
  0.197193959703E+00  0.210220463158E+00  0.224107029571E+00  0.238910381088E+00  0.254690972179E+00
  0.271513234056E+00  0.289445834930E+00  0.308561957126E+00  0.328939592114E+00  0.350661854581E+00
  0.373817316756E+00  0.398500364234E+00  0.424811574669E+00  0.452858120728E+00  0.482754198830E+00
  0.514621485241E+00  0.548589621210E+00  0.584796728916E+00  0.623389960083E+00  0.664526079235E+00
  0.708372083655E+00  0.755105862236E+00  0.804916895487E+00  0.858006999119E+00  0.914591113702E+00
  0.974898143035E+00  0.103917184397E+01  0.110767177057E+01  0.118067427555E+01  0.125847357214E+01
  0.134138285952E+01  0.142973551527E+01  0.152388635801E+01  0.162421298407E+01  0.173111718138E+01
  0.184502642465E+01  0.196639545512E+01  0.209570794891E+01  0.223347827749E+01  0.238025336400E+01
  0.253661463897E+01  0.270318009893E+01  0.288060647112E+01  0.306959148734E+01  0.327087626966E+01
  0.348524783014E+01  0.371354168641E+01  0.395664459411E+01  0.421549739658E+01  0.449109799102E+01
  0.478450440951E+01  0.509683801152E+01  0.542928678349E+01  0.578310873860E+01  0.615963540812E+01
  0.656027541303E+01  0.698651810157E+01  0.743993723502E+01  0.792219470034E+01  0.843504422318E+01
  0.898033505037E+01  0.956001556438E+01  0.101761367861E+02  0.108308557139E+02  0.115264384398E+02
  0.122652629708E+02  0.130498216764E+02  0.138827232673E+02  0.147666941976E+02  0.157045793689E+02
  0.166993419936E+02  0.177540624586E+02  0.188719360081E+02  0.200562690388E+02  0.213104737779E+02
  0.226380610827E+02  0.240426310707E+02  0.255278612560E+02  0.270974918300E+02  0.287553076865E+02
  0.305051167492E+02  0.323507241171E+02  0.342959014981E+02  0.363443513541E+02  0.384996651363E+02
  0.407652749428E+02  0.431443978893E+02  0.456399724435E+02  0.482545859441E+02  0.509903925027E+02
  0.538490204785E+02  0.568314687246E+02  0.599379908402E+02  0.631679667235E+02  0.665197608221E+02
  0.699905666250E+02  0.735762371450E+02  0.772711014156E+02  0.810677673827E+02  0.849569120291E+02
  0.889270601416E+02  0.929643538380E+02  0.970523158295E+02  0.101171610430E+03  0.105299807552E+03
  0.109411156353E+03  0.113476376884E+03  0.117462479947E+03  0.121332627520E+03  0.125046048423E+03
  0.128558026431E+03  0.131819980636E+03  0.134779660574E+03  0.137381481115E+03  0.139567024411E+03
  0.141275737857E+03  0.142445857803E+03  0.143015588252E+03  0.142924561360E+03  0.142115601657E+03
  0.140536807733E+03  0.138143952772E+03  0.134903187815E+03  0.130794007937E+03  0.125812410566E+03
  0.119974136111E+03  0.113317833136E+03  0.105907933466E+03  0.978369573764E+02  0.892268972513E+02
  0.802292531519E+02  0.710232213509E+02  0.618114754282E+02  0.528129410355E+02  0.442519659522E+02
  0.363433471535E+02  0.292728213886E+02  0.231728841825E+02  0.180942053783E+02  0.139769525796E+02
  0.106847536751E+02  0.808265899758E+01  0.604966118448E+01  0.447955016406E+01  0.328090706340E+01
  0.237645344875E+01  0.170196366744E+01  0.120491555316E+01  0.843020396516E+00  0.582739617872E+00
  0.397865177665E+00  0.268214542516E+00  0.178469520198E+00  0.117171453768E+00  0.758729352321E-01
  0.484374540170E-01  0.304732087923E-01  0.188843474407E-01  0.115220249708E-01  0.691809856892E-02
  0.408560167306E-02  0.237196988241E-02  0.135304107131E-02  0.757911179151E-03  0.416658002249E-03
  0.224664741380E-03  0.118744640782E-03  0.614804090648E-04  0.311610119014E-04  0.154502214026E-04
  0.748840875706E-05  0.354524146719E-05  0.163817146110E-05  0.738196376558E-06  0.324124126728E-06
 local pseudopotential core
 -0.341603901417E+03 -0.341604608204E+03 -0.341605292729E+03 -0.341605955688E+03 -0.341606597762E+03
 -0.341607219610E+03 -0.341607821865E+03 -0.341608405146E+03 -0.341608970050E+03 -0.341609517154E+03
 -0.341610047019E+03 -0.341610560187E+03 -0.341611057182E+03 -0.341611538514E+03 -0.341612004677E+03
 -0.341612456144E+03 -0.341612893381E+03 -0.341613316832E+03 -0.341613726933E+03 -0.341614124102E+03
 -0.341614508745E+03 -0.341614881256E+03 -0.341615242015E+03 -0.341615591392E+03 -0.341615929742E+03
 -0.341616257413E+03 -0.341616574739E+03 -0.341616882044E+03 -0.341617179642E+03 -0.341617467837E+03
 -0.341617746922E+03 -0.341618017182E+03 -0.341618278894E+03 -0.341618532323E+03 -0.341618777728E+03
 -0.341619015358E+03 -0.341619245457E+03 -0.341619468257E+03 -0.341619683985E+03 -0.341619892860E+03
 -0.341620095094E+03 -0.341620290892E+03 -0.341620480453E+03 -0.341620663967E+03 -0.341620841621E+03
 -0.341621013594E+03 -0.341621180059E+03 -0.341621341182E+03 -0.341621497127E+03 -0.341621648048E+03
 -0.341621794098E+03 -0.341621935421E+03 -0.341622072158E+03 -0.341622204445E+03 -0.341622332412E+03
 -0.341622456184E+03 -0.341622575884E+03 -0.341622691628E+03 -0.341622803528E+03 -0.341622911692E+03
 -0.341623016224E+03 -0.341623117223E+03 -0.341623214785E+03 -0.341623309001E+03 -0.341623399958E+03
 -0.341623487739E+03 -0.341623572425E+03 -0.341623654090E+03 -0.341623732806E+03 -0.341623808642E+03
 -0.341623881662E+03 -0.341623951925E+03 -0.341624019489E+03 -0.341624084406E+03 -0.341624146726E+03
 -0.341624206494E+03 -0.341624263750E+03 -0.341624318534E+03 -0.341624370878E+03 -0.341624420811E+03
 -0.341624468361E+03 -0.341624513547E+03 -0.341624556387E+03 -0.341624596894E+03 -0.341624635077E+03
 -0.341624670939E+03 -0.341624704479E+03 -0.341624735693E+03 -0.341624764569E+03 -0.341624791090E+03
 -0.341624815237E+03 -0.341624836982E+03 -0.341624856292E+03 -0.341624873128E+03 -0.341624887444E+03
 -0.341624899190E+03 -0.341624908304E+03 -0.341624914722E+03 -0.341624918368E+03 -0.341624919160E+03
 -0.341624917007E+03 -0.341624911808E+03 -0.341624903454E+03 -0.341624891825E+03 -0.341624876790E+03
 -0.341624858207E+03 -0.341624835922E+03 -0.341624809768E+03 -0.341624779565E+03 -0.341624745118E+03
 -0.341624706218E+03 -0.341624662639E+03 -0.341624614138E+03 -0.341624560454E+03 -0.341624501307E+03
 -0.341624436395E+03 -0.341624365398E+03 -0.341624287968E+03 -0.341624203735E+03 -0.341624112304E+03
 -0.341624013249E+03 -0.341623906117E+03 -0.341623790421E+03 -0.341623665643E+03 -0.341623531228E+03
 -0.341623386582E+03 -0.341623231071E+03 -0.341623064020E+03 -0.341622884704E+03 -0.341622692351E+03
 -0.341622486139E+03 -0.341622265185E+03 -0.341622028553E+03 -0.341621775238E+03 -0.341621504171E+03
 -0.341621214212E+03 -0.341620904141E+03 -0.341620572660E+03 -0.341620218383E+03 -0.341619839831E+03
 -0.341619435427E+03 -0.341619003489E+03 -0.341618542222E+03 -0.341618049713E+03 -0.341617523920E+03
 -0.341616962668E+03 -0.341616363635E+03 -0.341615724346E+03 -0.341615042162E+03 -0.341614314269E+03
 -0.341613537664E+03 -0.341612709149E+03 -0.341611825311E+03 -0.341610882512E+03 -0.341609876873E+03
 -0.341608804258E+03 -0.341607660258E+03 -0.341606440172E+03 -0.341605138985E+03 -0.341603751355E+03
 -0.341602271583E+03 -0.341600693595E+03 -0.341599010913E+03 -0.341597216634E+03 -0.341595303397E+03
 -0.341593263352E+03 -0.341591088134E+03 -0.341588768823E+03 -0.341586295909E+03 -0.341583659256E+03
 -0.341580848055E+03 -0.341577850785E+03 -0.341574655163E+03 -0.341571248096E+03 -0.341567615624E+03
 -0.341563742867E+03 -0.341559613960E+03 -0.341555211994E+03 -0.341550518940E+03 -0.341545515581E+03
 -0.341540181429E+03 -0.341534494647E+03 -0.341528431954E+03 -0.341521968535E+03 -0.341515077935E+03
 -0.341507731956E+03 -0.341499900539E+03 -0.341491551643E+03 -0.341482651113E+03 -0.341473162544E+03
 -0.341463047129E+03 -0.341452263504E+03 -0.341440767580E+03 -0.341428512362E+03 -0.341415447762E+03
 -0.341401520390E+03 -0.341386673343E+03 -0.341370845973E+03 -0.341353973640E+03 -0.341335987454E+03
 -0.341316813991E+03 -0.341296375004E+03 -0.341274587101E+03 -0.341251361415E+03 -0.341226603240E+03
 -0.341200211658E+03 -0.341172079126E+03 -0.341142091051E+03 -0.341110125332E+03 -0.341076051865E+03
 -0.341039732034E+03 -0.341001018150E+03 -0.340959752872E+03 -0.340915768578E+03 -0.340868886703E+03
 -0.340818917034E+03 -0.340765656964E+03 -0.340708890690E+03 -0.340648388376E+03 -0.340583905247E+03
 -0.340515180642E+03 -0.340441937004E+03 -0.340363878800E+03 -0.340280691392E+03 -0.340192039823E+03
 -0.340097567544E+03 -0.339996895057E+03 -0.339889618480E+03 -0.339775308029E+03 -0.339653506412E+03
 -0.339523727126E+03 -0.339385452666E+03 -0.339238132624E+03 -0.339081181684E+03 -0.338913977515E+03
 -0.338735858532E+03 -0.338546121559E+03 -0.338344019350E+03 -0.338128757988E+03 -0.337899494159E+03
 -0.337655332274E+03 -0.337395321466E+03 -0.337118452433E+03 -0.336823654137E+03 -0.336509790357E+03
 -0.336175656083E+03 -0.335819973765E+03 -0.335441389399E+03 -0.335038468469E+03 -0.334609691729E+03
 -0.334153450836E+03 -0.333668043836E+03 -0.333151670509E+03 -0.332602427573E+03 -0.332018303759E+03
 -0.331397174768E+03 -0.330736798119E+03 -0.330034807891E+03 -0.329288709395E+03 -0.328495873773E+03
 -0.327653532547E+03 -0.326758772155E+03 -0.325808528475E+03 -0.324799581375E+03 -0.323728549329E+03
 -0.322591884112E+03 -0.321385865628E+03 -0.320106596911E+03 -0.318749999347E+03 -0.317311808176E+03
 -0.315787568352E+03 -0.314172630843E+03 -0.312462149471E+03 -0.310651078450E+03 -0.308734170768E+03
 -0.306705977664E+03 -0.304560849469E+03 -0.302292938220E+03 -0.299896202539E+03 -0.297364415442E+03
 -0.294691175990E+03 -0.291869925906E+03 -0.288893972736E+03 -0.285756521532E+03 -0.282450717696E+03
 -0.278969704380E+03 -0.275306698775E+03 -0.271455092805E+03 -0.267408585030E+03 -0.263161352025E+03
 -0.258708268856E+03 -0.254045189327E+03 -0.249169296744E+03 -0.244079534258E+03 -0.238777118917E+03
 -0.233266133129E+03 -0.227554168309E+03 -0.221652963725E+03 -0.215578935391E+03 -0.209353426804E+03
 -0.203002457175E+03 -0.196555763755E+03 -0.190045180200E+03 -0.183503030607E+03 -0.176962114979E+03
 -0.170458935672E+03 -0.164038784939E+03 -0.157753745153E+03 -0.151639042554E+03 -0.145698358272E+03
 -0.139981410845E+03 -0.135154011292E+03 -0.130877860779E+03 -0.127134835801E+03 -0.123909871333E+03
 -0.120000535040E+03 -0.116217789338E+03 -0.112555247257E+03 -0.109008816792E+03 -0.105574615956E+03
 -0.102248946993E+03 -0.990282792793E+02 -0.959092057910E+02 -0.928884865771E+02 -0.899629784200E+02
 -0.871296554809E+02 -0.843855962334E+02 -0.817279773925E+02 -0.791540689418E+02 -0.766612291495E+02
 -0.742469018510E+02 -0.719086127108E+02 -0.696439656766E+02 -0.674506407750E+02 -0.653263913935E+02
 -0.632690418804E+02 -0.612764851944E+02 -0.593466806855E+02 -0.574776520672E+02 -0.556674853041E+02
 -0.539143266648E+02 -0.522163807975E+02 -0.505719089159E+02 -0.489792269819E+02 -0.474367039968E+02
 pspotential valence only
 -0.234464555959E+03 -0.234465262762E+03 -0.234465947302E+03 -0.234466610278E+03 -0.234467252370E+03
 -0.234467874236E+03 -0.234468476512E+03 -0.234469059814E+03 -0.234469624741E+03 -0.234470171869E+03
 -0.234470701760E+03 -0.234471214955E+03 -0.234471711980E+03 -0.234472193345E+03 -0.234472659540E+03
 -0.234473111044E+03 -0.234473548318E+03 -0.234473971811E+03 -0.234474381955E+03 -0.234474779170E+03
 -0.234475163862E+03 -0.234475536426E+03 -0.234475897241E+03 -0.234476246677E+03 -0.234476585092E+03
 -0.234476912831E+03 -0.234477230229E+03 -0.234477537611E+03 -0.234477835292E+03 -0.234478123574E+03
 -0.234478402753E+03 -0.234478673113E+03 -0.234478934930E+03 -0.234479188473E+03 -0.234479433999E+03
 -0.234479671758E+03 -0.234479901994E+03 -0.234480124941E+03 -0.234480340825E+03 -0.234480549866E+03
 -0.234480752278E+03 -0.234480948265E+03 -0.234481138027E+03 -0.234481321757E+03 -0.234481499640E+03
 -0.234481671857E+03 -0.234481838582E+03 -0.234481999983E+03 -0.234482156224E+03 -0.234482307461E+03
 -0.234482453848E+03 -0.234482595529E+03 -0.234482732649E+03 -0.234482865343E+03 -0.234482993745E+03
 -0.234483117981E+03 -0.234483238175E+03 -0.234483354445E+03 -0.234483466907E+03 -0.234483575669E+03
 -0.234483680839E+03 -0.234483782519E+03 -0.234483880806E+03 -0.234483975795E+03 -0.234484067576E+03
 -0.234484156237E+03 -0.234484241859E+03 -0.234484324523E+03 -0.234484404305E+03 -0.234484481276E+03
 -0.234484555505E+03 -0.234484627059E+03 -0.234484695999E+03 -0.234484762382E+03 -0.234484826266E+03
 -0.234484887700E+03 -0.234484946734E+03 -0.234485003412E+03 -0.234485057775E+03 -0.234485109862E+03
 -0.234485159706E+03 -0.234485207339E+03 -0.234485252788E+03 -0.234485296076E+03 -0.234485337224E+03
 -0.234485376247E+03 -0.234485413157E+03 -0.234485447963E+03 -0.234485480669E+03 -0.234485511274E+03
 -0.234485539774E+03 -0.234485566159E+03 -0.234485590416E+03 -0.234485612527E+03 -0.234485632466E+03
 -0.234485650206E+03 -0.234485665712E+03 -0.234485678943E+03 -0.234485689852E+03 -0.234485698388E+03
 -0.234485704490E+03 -0.234485708092E+03 -0.234485709121E+03 -0.234485707495E+03 -0.234485703124E+03
 -0.234485695909E+03 -0.234485685744E+03 -0.234485672511E+03 -0.234485656083E+03 -0.234485636322E+03
 -0.234485613078E+03 -0.234485586190E+03 -0.234485555483E+03 -0.234485520769E+03 -0.234485481845E+03
 -0.234485438495E+03 -0.234485390483E+03 -0.234485337558E+03 -0.234485279449E+03 -0.234485215869E+03
 -0.234485146506E+03 -0.234485071027E+03 -0.234484989078E+03 -0.234484900276E+03 -0.234484804215E+03
 -0.234484700459E+03 -0.234484588540E+03 -0.234484467961E+03 -0.234484338190E+03 -0.234484198657E+03
 -0.234484048754E+03 -0.234483887832E+03 -0.234483715199E+03 -0.234483530113E+03 -0.234483331786E+03
 -0.234483119372E+03 -0.234482891973E+03 -0.234482648628E+03 -0.234482388312E+03 -0.234482109931E+03
 -0.234481812319E+03 -0.234481494231E+03 -0.234481154339E+03 -0.234480791227E+03 -0.234480403384E+03
 -0.234479989199E+03 -0.234479546953E+03 -0.234479074815E+03 -0.234478570829E+03 -0.234478032911E+03
 -0.234477458839E+03 -0.234476846242E+03 -0.234476192594E+03 -0.234475495200E+03 -0.234474751186E+03
 -0.234473957489E+03 -0.234473110842E+03 -0.234472207761E+03 -0.234471244534E+03 -0.234470217202E+03
 -0.234469121543E+03 -0.234467953056E+03 -0.234466706943E+03 -0.234465378089E+03 -0.234463961041E+03
 -0.234462449983E+03 -0.234460838718E+03 -0.234459120637E+03 -0.234457288696E+03 -0.234455335383E+03
 -0.234453252693E+03 -0.234451032090E+03 -0.234448664476E+03 -0.234446140151E+03 -0.234443448774E+03
 -0.234440579324E+03 -0.234437520049E+03 -0.234434258424E+03 -0.234430781097E+03 -0.234427073836E+03
 -0.234423121468E+03 -0.234418907821E+03 -0.234414415656E+03 -0.234409626598E+03 -0.234404521061E+03
 -0.234399078168E+03 -0.234393275667E+03 -0.234387089838E+03 -0.234380495402E+03 -0.234373465416E+03
 -0.234365971160E+03 -0.234357982027E+03 -0.234349465397E+03 -0.234340386505E+03 -0.234330708298E+03
 -0.234320391293E+03 -0.234309393410E+03 -0.234297669808E+03 -0.234285172702E+03 -0.234271851174E+03
 -0.234257650967E+03 -0.234242514270E+03 -0.234226379484E+03 -0.234209180980E+03 -0.234190848838E+03
 -0.234171308565E+03 -0.234150480806E+03 -0.234128281026E+03 -0.234104619179E+03 -0.234079399352E+03
 -0.234052519393E+03 -0.234023870504E+03 -0.233993336828E+03 -0.233960794988E+03 -0.233926113616E+03
 -0.233889152846E+03 -0.233849763776E+03 -0.233807787898E+03 -0.233763056497E+03 -0.233715390013E+03
 -0.233664597362E+03 -0.233610475223E+03 -0.233552807284E+03 -0.233491363440E+03 -0.233425898947E+03
 -0.233356153540E+03 -0.233281850482E+03 -0.233202695585E+03 -0.233118376159E+03 -0.233028559921E+03
 -0.232932893839E+03 -0.232831002923E+03 -0.232722488957E+03 -0.232606929167E+03 -0.232483874834E+03
 -0.232352849839E+03 -0.232213349150E+03 -0.232064837247E+03 -0.231906746482E+03 -0.231738475381E+03
 -0.231559386892E+03 -0.231368806568E+03 -0.231166020707E+03 -0.230950274442E+03 -0.230720769783E+03
 -0.230476663638E+03 -0.230217065791E+03 -0.229941036885E+03 -0.229647586381E+03 -0.229335670544E+03
 -0.229004190449E+03 -0.228651990035E+03 -0.228277854230E+03 -0.227880507170E+03 -0.227458610538E+03
 -0.227010762061E+03 -0.226535494193E+03 -0.226031273036E+03 -0.225496497528E+03 -0.224929498965E+03
 -0.224328540890E+03 -0.223691819433E+03 -0.223017464149E+03 -0.222303539429E+03 -0.221548046565E+03
 -0.220748926554E+03 -0.219904063716E+03 -0.219011290244E+03 -0.218068391771E+03 -0.217073114074E+03
 -0.216023171032E+03 -0.214916253965E+03 -0.213750042497E+03 -0.212522217078E+03 -0.211230473344E+03
 -0.209872538482E+03 -0.208446189807E+03 -0.206949275763E+03 -0.205379739621E+03 -0.203735646159E+03
 -0.202015211690E+03 -0.200216837862E+03 -0.198339149758E+03 -0.196381038941E+03 -0.194341712260E+03
 -0.192220747406E+03 -0.190018156447E+03 -0.187734458797E+03 -0.185370765290E+03 -0.182928875068E+03
 -0.180411386822E+03 -0.177821825030E+03 -0.175164779986E+03 -0.172446056608E+03 -0.169672820218E+03
 -0.166853715890E+03 -0.163998919080E+03 -0.161120045914E+03 -0.158229809396E+03 -0.155341256301E+03
 -0.152466382318E+03 -0.149613972425E+03 -0.146786797863E+03 -0.143978987684E+03 -0.141175343507E+03
 -0.138354490328E+03 -0.135494756942E+03 -0.132574098726E+03 -0.129549686356E+03 -0.126347785790E+03
 -0.122947024766E+03 -0.119954742741E+03 -0.116992929428E+03 -0.114027584863E+03 -0.111054743427E+03
 -0.108119398946E+03 -0.105227765774E+03 -0.102381505521E+03 -0.995837951933E+02 -0.968372945986E+02
 -0.941441699878E+02 -0.915061189872E+02 -0.889243970072E+02 -0.863998419631E+02 -0.839329036075E+02
 -0.815236741767E+02 -0.791719248183E+02 -0.768771501439E+02 -0.746386211682E+02 -0.724554483593E+02
 -0.703266460007E+02 -0.682512071489E+02 -0.662281666143E+02 -0.642566600448E+02 -0.623359666531E+02
 -0.604655333414E+02 -0.586449772755E+02 -0.568740659916E+02 -0.551526759835E+02 -0.534807327883E+02
 -0.518581378617E+02 -0.502846899106E+02 -0.487600102836E+02 -0.472834827670E+02 -0.458542169412E+02
 core charge-density (pseudized)
  0.407360531852E-07  0.434283966310E-07  0.462986835100E-07  0.493586745301E-07  0.526209076924E-07
  0.560987496646E-07  0.598064505496E-07  0.637592022734E-07  0.679732008329E-07  0.724657126572E-07
  0.772551453548E-07  0.823611231371E-07  0.878045672267E-07  0.936077815797E-07  0.997945442737E-07
  0.106390204937E-06  0.113421788613E-06  0.120918106499E-06  0.128909873989E-06  0.137429836532E-06
  0.146512903802E-06  0.156196292737E-06  0.166519680031E-06  0.177525364703E-06  0.189258441418E-06
  0.201766985252E-06  0.215102248679E-06  0.229318871569E-06  0.244475105072E-06  0.260633050294E-06
  0.277858912751E-06  0.296223273637E-06  0.315801379026E-06  0.336673448180E-06  0.358925002245E-06
  0.382647214659E-06  0.407937284727E-06  0.434898835887E-06  0.463642340292E-06  0.494285571458E-06
  0.526954086832E-06  0.561781742243E-06  0.598911240366E-06  0.638494715429E-06  0.680694356565E-06
  0.725683072364E-06  0.773645199345E-06  0.824777257253E-06  0.879288754278E-06  0.937403045489E-06
  0.999358248001E-06  0.106540821664E-05  0.113582358406E-05  0.121089286968E-05  0.129092366177E-05
  0.137624387783E-05  0.146720310818E-05  0.156417404832E-05  0.166755402603E-05  0.177776662936E-05
  0.189526344224E-05  0.202052589477E-05  0.215406723580E-05  0.229643463591E-05  0.244821142935E-05
  0.261001950420E-05  0.278252185039E-05  0.296642527629E-05  0.316248330465E-05  0.337149926013E-05
  0.359432956070E-05  0.383188722673E-05  0.408514562191E-05  0.435514244143E-05  0.464298396374E-05
  0.494984958331E-05  0.527699664299E-05  0.562576558568E-05  0.599758544655E-05  0.639397970817E-05
  0.681657254266E-05  0.726709546634E-05  0.774739443420E-05  0.825943740324E-05  0.880532239566E-05
  0.938728609495E-05  0.100077130100E-04  0.106691452451E-04  0.113742929151E-04  0.121260452495E-04
  0.129274824303E-04  0.137818882112E-04  0.146927633725E-04  0.156638400636E-04  0.166990970940E-04
  0.178027762350E-04  0.189793995986E-04  0.202337881643E-04  0.215710815307E-04  0.229967589730E-04
  0.245166618905E-04  0.261370177389E-04  0.278644655434E-04  0.297060830975E-04  0.316694159603E-04
  0.337625083680E-04  0.359939361899E-04  0.383728420607E-04  0.409089728352E-04  0.436127195168E-04
  0.464951598250E-04  0.495681035755E-04  0.528441410580E-04  0.563366946113E-04  0.600600736046E-04
  0.640295330527E-04  0.682613361027E-04  0.727728206491E-04  0.775824703497E-04  0.827099903328E-04
  0.881763879052E-04  0.940040585921E-04  0.100216877859E-03  0.106840298894E-03  0.113901456846E-03
  0.121429279947E-03  0.129454607979E-03  0.138010318555E-03  0.147131461746E-03  0.156855403595E-03
  0.167221979107E-03  0.178273655342E-03  0.190055705268E-03  0.202616393102E-03  0.216007171873E-03
  0.230282894034E-03  0.245502035970E-03  0.261726937318E-03  0.279024056085E-03  0.297464240592E-03
  0.317123019361E-03  0.338080910120E-03  0.360423749194E-03  0.384243042606E-03  0.409636340335E-03
  0.436707635248E-03  0.465567788314E-03  0.496334981851E-03  0.529135202630E-03  0.564102756802E-03
  0.601380818736E-03  0.641122015998E-03  0.683489052826E-03  0.728655374650E-03  0.776805876312E-03
  0.828137656875E-03  0.882860824059E-03  0.941199351538E-03  0.100339199257E-02  0.106969325363E-02
  0.114037443194E-02  0.121572472110E-02  0.129605238920E-02  0.138168603420E-02  0.147297592152E-02
  0.157029540921E-02  0.167404246641E-02  0.178464129105E-02  0.190254403329E-02  0.202823263149E-02
  0.216222076795E-02  0.230505595211E-02  0.245732173949E-02  0.261964009488E-02  0.279267390920E-02
  0.297712967969E-02  0.317376036390E-02  0.338336841844E-02  0.360680903431E-02  0.384499358098E-02
  0.409889327262E-02  0.436954307016E-02  0.465804583407E-02  0.496557674332E-02  0.529338799707E-02
  0.564281381646E-02  0.601527576493E-02  0.641228840646E-02  0.683546532211E-02  0.728652550663E-02
  0.776730016763E-02  0.827973995133E-02  0.882592261991E-02  0.940806120683E-02  0.100285126776E-01
  0.106897871253E-01  0.113945575298E-01  0.121456701144E-01  0.129461553299E-01  0.137992395021E-01
  0.147083571777E-01  0.156771642037E-01  0.167095515798E-01  0.178096601211E-01  0.189818959701E-01
  0.202309469995E-01  0.215618001458E-01  0.229797597133E-01  0.244904666916E-01  0.260999191253E-01
  0.278144935753E-01  0.296409677113E-01  0.315865440698E-01  0.336588750121E-01  0.358660889121E-01
  0.382168175976E-01  0.407202250673E-01  0.433860374936E-01  0.462245745158E-01  0.492467818182E-01
  0.524642649729E-01  0.558893245154E-01  0.595349922008E-01  0.634150683704E-01  0.675441603336E-01
  0.719377216428E-01  0.766120921057E-01  0.815845383441E-01  0.868732946637E-01  0.924976039515E-01
  0.984777582596E-01  0.104835138671E+00  0.111592253971E+00  0.118772777556E+00  0.126401581931E+00
  0.134504770029E+00  0.143109702462E+00  0.152245019692E+00  0.161940657947E+00  0.172227857524E+00
  0.183139161971E+00  0.194708406368E+00  0.206970692759E+00  0.219962350464E+00  0.233720878761E+00
  0.248284869096E+00  0.263693903631E+00  0.279988426591E+00  0.297209584447E+00  0.315399030574E+00
  0.334598689539E+00  0.354850475728E+00  0.376195960507E+00  0.398675981611E+00  0.422330187956E+00
  0.447196512561E+00  0.473310565798E+00  0.500704940762E+00  0.529408422207E+00  0.559445090246E+00
  0.590833309894E+00  0.623584597665E+00  0.657702356735E+00  0.693180472896E+00  0.730001764584E+00
  0.768136281866E+00  0.807539451468E+00  0.848150067930E+00  0.889888134806E+00  0.932652564816E+00
  0.976318754061E+00  0.102073605308E+01  0.106572516690E+01  0.111107552746E+01  0.115654269519E+01
  0.120184586209E+01  0.124666554691E+01  0.129064159350E+01  0.133337160665E+01  0.137440998536E+01
  0.141326774072E+01  0.144941331476E+01  0.148227464561E+01  0.151124275239E+01  0.153567713820E+01
  0.155491332840E+01  0.156827287073E+01  0.157507611859E+01  0.157465809391E+01  0.156638767371E+01
  0.154969025638E+01  0.152407393086E+01  0.148915898239E+01  0.144471031226E+01  0.139067201298E+01
  0.132720291598E+01  0.125471140777E+01  0.117388719075E+01  0.108572695297E+01  0.991550125974E+00
  0.893000087690E+00  0.792025369477E+00  0.690834743359E+00  0.591819627369E+00  0.497437227509E+00
  0.410048457640E+00  0.331706216981E+00  0.263892375088E+00  0.207206157668E+00  0.161045902193E+00
  0.123943819505E+00  0.944385285896E-01  0.712256717595E-01  0.531610493489E-01  0.392572160206E-01
  0.286751898182E-01  0.207127776048E-01  0.147908264289E-01  0.104384930622E-01  0.727840157912E-02
  0.501234540049E-02  0.340799570821E-02  0.228690892028E-02  0.151398530054E-02  0.988419101837E-03
  0.636097404420E-03  0.403346393840E-03  0.251887483174E-03  0.154847218856E-03  0.936603829331E-04
  0.557113938297E-04  0.325716640563E-04  0.187071658526E-04  0.105488250316E-04  0.583680562636E-05
  0.316707919292E-05  0.168415678068E-05  0.877127195106E-06  0.447099577729E-06  0.222895249091E-06
  0.108600835214E-06  0.516737174729E-07  0.239919866586E-07  0.108609032701E-07  0.478960718362E-08
 pseudo wavefunction
  0.929793334331E-12  0.102347844001E-11  0.112660316917E-11  0.124011864944E-11  0.136507184315E-11
  0.150261520360E-11  0.165401730416E-11  0.182067453852E-11  0.200412399963E-11  0.220605765652E-11
  0.242833795943E-11  0.267301501730E-11  0.294234550616E-11  0.323881348258E-11  0.356515329434E-11
  0.392437479952E-11  0.431979112668E-11  0.475504923208E-11  0.523416353589E-11  0.576155294743E-11
  0.634208162122E-11  0.698110381934E-11  0.768451329432E-11  0.845879764760E-11  0.931109816525E-11
  0.102492756825E-10  0.112819830851E-10  0.124187451152E-10  0.136700462189E-10  0.150474272454E-10
  0.165635918888E-10  0.182325238553E-10  0.200696158363E-10  0.220918114758E-10  0.243177616435E-10
  0.267679964531E-10  0.294651146126E-10  0.324339918547E-10  0.357020103667E-10  0.392993113394E-10
  0.432590729606E-10  0.476178164208E-10  0.524157427506E-10  0.576971035975E-10  0.635106093625E-10
  0.699098784595E-10  0.769539318417E-10  0.847077373567E-10  0.932428089487E-10  0.102637866238E-09
  0.112979560555E-09  0.124363274136E-09  0.136893999835E-09  0.150687309484E-09  0.165870419819E-09
  0.182583365805E-09  0.200980292193E-09  0.221230875205E-09  0.243521887466E-09  0.268058920625E-09
  0.295068281535E-09  0.324799079497E-09  0.357525523809E-09  0.393549452817E-09  0.433203117784E-09
  0.476852247262E-09  0.524899420229E-09  0.577787779093E-09  0.636005116819E-09  0.700088375865E-09
  0.770628600429E-09  0.848276387672E-09  0.933747888209E-09  0.102783141119E-08  0.113139469490E-08
  0.124539290994E-08  0.137087746882E-08  0.150900572310E-08  0.166105163776E-08  0.182841754093E-08
  0.201264705760E-08  0.221543934653E-08  0.243866477157E-08  0.268438215202E-08  0.295485775115E-08
  0.325258617789E-08  0.358031339461E-08  0.394106204304E-08  0.433815932203E-08  0.477526767420E-08
  0.525641856446E-08  0.578604966207E-08  0.636904576895E-08  0.701078387189E-08  0.771718273412E-08
  0.849475748348E-08  0.935067970088E-08  0.102928435629E-07  0.113299386489E-07  0.124715300839E-07
  0.137281467559E-07  0.151113784225E-07  0.166339826011E-07  0.183100022285E-07  0.201548951763E-07
  0.221856768150E-07  0.244210769425E-07  0.268817125232E-07  0.295902778328E-07  0.325717537594E-07
  0.358536381939E-07  0.394661996316E-07  0.434427563269E-07  0.478199835716E-07  0.526382519340E-07
  0.579419995750E-07  0.637801420767E-07  0.702065235610E-07  0.772804132586E-07  0.850670521083E-07
  0.936382544247E-07  0.103073070184E-06  0.113458514034E-06  0.124890367748E-06  0.137474063527E-06
  0.151325656289E-06  0.166572893908E-06  0.183356395280E-06  0.201830947066E-06  0.222166931075E-06
  0.244551895437E-06  0.269192284063E-06  0.296315340322E-06  0.326171202491E-06  0.359035210293E-06
  0.395210443780E-06  0.435030517960E-06  0.478862658938E-06  0.527111089900E-06  0.580220758170E-06
  0.638681437659E-06  0.703032244535E-06  0.773866607698E-06  0.851837739878E-06  0.937664659747E-06
  0.103213882053E-05  0.113613140615E-05  0.125060136220E-05  0.137660423553E-05  0.151530190410E-05
  0.166797328642E-05  0.183602612945E-05  0.202100998325E-05  0.222463048202E-05  0.244876506276E-05
  0.269548026641E-05  0.296705078050E-05  0.326598039864E-05  0.359502508949E-05  0.395721838754E-05
  0.435589933901E-05  0.479474325988E-05  0.527779558877E-05  0.580950914563E-05  0.639478513863E-05
  0.703901829589E-05  0.774814653631E-05  0.852870563563E-05  0.938788938917E-05  0.103336158232E-04
  0.113746000623E-04  0.125204345198E-04  0.137816771477E-04  0.151699485523E-04  0.166980388662E-04
  0.183800253532E-04  0.202314018232E-04  0.222692210381E-04  0.245122514104E-04  0.269811494255E-04
  0.296986493586E-04  0.326897720181E-04  0.359820544138E-04  0.396058024432E-04  0.435943688904E-04
  0.479844592649E-04  0.528164682548E-04  0.581348498436E-04  0.639885244433E-04  0.704313267238E-04
  0.775224981828E-04  0.853272289000E-04  0.939172533512E-04  0.103371505640E-03  0.113776840028E-03
  0.125228823214E-03  0.137832605451E-03  0.151703878266E-03  0.166969927312E-03  0.183770789696E-03
  0.202260526039E-03  0.222608618496E-03  0.245001507046E-03  0.269644277547E-03  0.296762516312E-03
  0.326604347367E-03  0.359442670093E-03  0.395577616582E-03  0.435339249863E-03  0.479090526101E-03
  0.527230546015E-03  0.580198123058E-03  0.638475698407E-03  0.702593635521E-03  0.773134929961E-03
  0.850740373286E-03  0.936114213299E-03  0.103003035651E-02  0.113333916266E-02  0.124697488526E-02
  0.137196381681E-02  0.150943320167E-02  0.166062098528E-02  0.182688647312E-02  0.200972197889E-02
  0.221076554710E-02  0.243181484140E-02  0.267484229656E-02  0.294201163807E-02  0.323569588064E-02
  0.355849692289E-02  0.391326686260E-02  0.430313116311E-02  0.473151380749E-02  0.520216458274E-02
  0.571918864095E-02  0.628707848812E-02  0.691074855346E-02  0.759557249274E-02  0.834742337714E-02
  0.917271691445E-02  0.100784578413E-01  0.110722896120E-01  0.121625474923E-01  0.133583151406E-01
  0.146694847286E-01  0.161068206106E-01  0.176820264991E-01  0.194078160382E-01  0.212979865871E-01
  0.233674959287E-01  0.256325414953E-01  0.281106415695E-01  0.308207177400E-01  0.337831776992E-01
  0.370199972296E-01  0.405547999518E-01  0.444129330878E-01  0.486215371219E-01  0.532096068177E-01
  0.582080405663E-01  0.636496744891E-01  0.695692971026E-01  0.760036396629E-01  0.829913365412E-01
  0.905728491474E-01  0.987903460100E-01  0.107687530651E+00  0.117309407879E+00  0.127701978059E+00
  0.138911847898E+00  0.150985745213E+00  0.163969924286E+00  0.177909447576E+00  0.192847329055E+00
  0.208823524249E+00  0.225873752347E+00  0.244028136707E+00  0.263309651856E+00  0.283732367949E+00
  0.305299487849E+00  0.328001177802E+00  0.351812200484E+00  0.376689369304E+00  0.402568855580E+00
  0.429363396034E+00  0.456959467048E+00  0.485214514728E+00  0.513954355833E+00  0.542970894014E+00
  0.572020327880E+00  0.600822061246E+00  0.629058559753E+00  0.656376429574E+00  0.682389019551E+00
  0.706680863451E+00  0.728814277958E+00  0.748338407474E+00  0.764800949814E+00  0.777762697688E+00
  0.786814878669E+00  0.791599060548E+00  0.791829100425E+00  0.787314248731E+00  0.777982074224E+00
  0.763899363065E+00  0.745288589216E+00  0.722536999065E+00  0.696194870054E+00  0.666959191257E+00
  0.635639007039E+00  0.603099130124E+00  0.570180061022E+00  0.537593950145E+00  0.505799085450E+00
  0.474923264773E+00  0.445004685539E+00  0.416090063876E+00  0.388217887801E+00  0.361419019577E+00
  0.335717260569E+00  0.311129873912E+00  0.287668061553E+00  0.265337398303E+00  0.244138216605E+00
  0.224065950421E+00  0.205111441422E+00  0.187261213716E+00  0.170497726392E+00  0.154799614706E+00
  0.140141931390E+00  0.126496399900E+00  0.113831689302E+00  0.102113717727E+00  0.913059874127E-01
  0.813699497749E-01  0.722653945765E-01  0.639508535410E-01  0.563840062024E-01  0.495220746821E-01
  0.433221945701E-01  0.377417511108E-01  0.327386732009E-01  0.282716818712E-01  0.243004943154E-01
 ae wavefunction
 -0.447504660002E-08 -0.488668578869E-08 -0.533343083781E-08 -0.581850527082E-08 -0.634541190904E-08
 -0.691795862908E-08 -0.754028639672E-08 -0.821689978957E-08 -0.895270023975E-08 -0.975302224987E-08
 -0.106236728576E-07 -0.115709746505E-07 -0.126018126601E-07 -0.137236854936E-07 -0.149447610975E-07
 -0.162739375794E-07 -0.177209095596E-07 -0.192962405625E-07 -0.210114420090E-07 -0.228790594206E-07
 -0.249127665079E-07 -0.271274678702E-07 -0.295394111118E-07 -0.321663092468E-07 -0.350274743521E-07
 -0.381439635136E-07 -0.415387382157E-07 -0.452368384218E-07 -0.492655727220E-07 -0.536547260460E-07
 -0.584367865912E-07 -0.636471937433E-07 -0.693246089870E-07 -0.755112119314E-07 -0.822530238275E-07
 -0.896002611401E-07 -0.976077220213E-07 -0.106335208754E-06 -0.115847989570E-06 -0.126217303540E-06
 -0.137520912604E-06 -0.149843705177E-06 -0.163278356209E-06 -0.177926049028E-06 -0.193897264806E-06
 -0.211312646045E-06 -0.230303941086E-06 -0.251015037319E-06 -0.273603091501E-06 -0.298239766378E-06
 -0.325112583709E-06 -0.354426404731E-06 -0.386405050170E-06 -0.421293073051E-06 -0.459357698832E-06
 -0.500890948754E-06 -0.546211963858E-06 -0.595669548718E-06 -0.649644955830E-06 -0.708554933528E-06
 -0.772855062530E-06 -0.843043408573E-06 -0.919664521226E-06 -0.100331381185E-05 -0.109464234677E-05
 -0.119436209521E-05 -0.130325167525E-05 -0.142216264525E-05 -0.155202639249E-05 -0.169386167611E-05
 -0.184878288623E-05 -0.201800908760E-05 -0.220287392226E-05 -0.240483645265E-05 -0.262549303472E-05
 -0.286659031851E-05 -0.313003948328E-05 -0.341793182419E-05 -0.373255581831E-05 -0.407641581024E-05
 -0.445225247026E-05 -0.486306519250E-05 -0.531213661620E-05 -0.580305947037E-05 -0.633976596031E-05
 -0.692655993552E-05 -0.756815210002E-05 -0.826969855060E-05 -0.903684295511E-05 -0.987576271085E-05
 -0.107932194556E-04 -0.117966143367E-04 -0.128940484817E-04 -0.140943891542E-04 -0.154073421214E-04
 -0.168435308105E-04 -0.184145828801E-04 -0.201332248898E-04 -0.220133858158E-04 -0.240703102219E-04
 -0.263206819719E-04 -0.287827594460E-04 -0.314765233089E-04 -0.344238379706E-04 -0.376486279810E-04
 -0.411770707050E-04 -0.450378067465E-04 -0.492621697118E-04 -0.538844370435E-04 -0.589421038008E-04
 -0.644761814241E-04 -0.705315236921E-04 -0.771571822646E-04 -0.844067944070E-04 -0.923390057020E-04
 -0.101017930788E-03 -0.110513655410E-03 -0.120902783338E-03 -0.132269031978E-03 -0.144703880831E-03
 -0.158307277250E-03 -0.173188404318E-03 -0.189466516015E-03 -0.207271845267E-03 -0.226746590844E-03
 -0.248045989570E-03 -0.271339480723E-03 -0.296811970040E-03 -0.324665201241E-03 -0.355119243543E-03
 -0.388414104215E-03 -0.424811475804E-03 -0.464596628332E-03 -0.508080457371E-03 -0.555601699609E-03
 -0.607529328197E-03 -0.664265140903E-03 -0.726246554792E-03 -0.793949621931E-03 -0.867892281322E-03
 -0.948637863036E-03 -0.103679886123E-02 -0.113304099345E-02 -0.123808756433E-02 -0.135272415239E-02
 -0.147780363926E-02 -0.161425160116E-02 -0.176307208293E-02 -0.192535377510E-02 -0.210227661489E-02
 -0.229511883173E-02 -0.250526445809E-02 -0.273421132573E-02 -0.298357956684E-02 -0.325512063887E-02
 -0.355072689003E-02 -0.387244168134E-02 -0.422247007835E-02 -0.460319012343E-02 -0.501716469609E-02
 -0.546715396481E-02 -0.595612842950E-02 -0.648728254802E-02 -0.706404893411E-02 -0.769011310668E-02
 -0.836942876212E-02 -0.910623353186E-02 -0.990506517651E-02 -0.107707781560E-01 -0.117085605013E-01
 -0.127239508987E-01 -0.138228558803E-01 -0.150115669957E-01 -0.162967778208E-01 -0.176856006367E-01
 -0.191855825867E-01 -0.208047210963E-01 -0.225514783103E-01 -0.244347942739E-01 -0.264640985526E-01
 -0.286493199515E-01 -0.310008939603E-01 -0.335297675105E-01 -0.362474005898E-01 -0.391657642105E-01
 -0.422973341747E-01 -0.456550800165E-01 -0.492524484338E-01 -0.531033404452E-01 -0.572220814371E-01
 -0.616233832105E-01 -0.663222970984E-01 -0.713341572351E-01 -0.766745130976E-01 -0.823590505154E-01
 -0.884035004330E-01 -0.948235347922E-01 -0.101634648968E+00 -0.108852030230E+00 -0.116490411701E+00
 -0.124563911294E+00 -0.133085855049E+00 -0.142068584304E+00 -0.151523246202E+00 -0.161459567125E+00
 -0.171885608906E+00 -0.182807507886E+00 -0.194229197160E+00 -0.206152112699E+00 -0.218574884288E+00
 -0.231493012664E+00 -0.244898534584E+00 -0.258779678048E+00 -0.273120510372E+00 -0.287900582352E+00
 -0.303094572290E+00 -0.318671934230E+00 -0.334596555304E+00 -0.350826427640E+00 -0.367313340823E+00
 -0.384002601337E+00 -0.400832785891E+00 -0.417735535875E+00 -0.434635400476E+00 -0.451449736226E+00
 -0.468088670759E+00 -0.484455138287E+00 -0.500444993388E+00 -0.515947207727E+00 -0.530844150881E+00
 -0.545011951411E+00 -0.558320928891E+00 -0.570636084252E+00 -0.581817638705E+00 -0.591721624298E+00
 -0.600200551920E+00 -0.607104209317E+00 -0.612280658517E+00 -0.615577489098E+00 -0.616843329300E+00
 -0.615929543144E+00 -0.612692002156E+00 -0.606992846489E+00 -0.598702210766E+00 -0.587699931057E+00
 -0.573877251350E+00 -0.557138527554E+00 -0.537402907487E+00 -0.514605957316E+00 -0.488701207602E+00
 -0.459661599174E+00 -0.427480815147E+00 -0.392174487828E+00 -0.353781268239E+00 -0.312363742151E+00
 -0.268009171481E+00 -0.220830034343E+00 -0.170964332178E+00 -0.118575629235E+00 -0.638527894398E-01
 -0.700937937964E-02  0.517172861267E-01  0.112067469292E+00  0.173760711159E+00  0.236497917585E+00
  0.299963854584E+00  0.363830103662E+00  0.427758518392E+00  0.491405083115E+00  0.554423695008E+00
  0.616468847039E+00  0.677196033540E+00  0.736259851617E+00  0.793312322318E+00  0.848005566476E+00
  0.900000301627E+00  0.948976460665E+00  0.994641230754E+00  0.103673346666E+01  0.107502609666E+01
  0.110932801639E+01  0.113948597224E+01  0.116538630038E+01  0.118695617924E+01  0.120416409615E+01
  0.121701937524E+01  0.122557076601E+01  0.122990419646E+01  0.123013984681E+01  0.122642871512E+01
  0.121894883589E+01  0.120790129983E+01  0.119350620155E+01  0.117599862061E+01  0.115562472931E+01
  0.113263809026E+01  0.110729620563E+01  0.107985735054E+01  0.105057772102E+01  0.101970890817E+01
  0.987495708216E+00  0.954174262970E+00  0.919970526059E+00  0.885099040097E+00  0.849762008678E+00
  0.814148641844E+00  0.778434752147E+00  0.742782574580E+00  0.707340784599E+00  0.672244684617E+00
  0.637616532700E+00  0.603565985178E+00  0.570190627741E+00  0.537576570613E+00  0.505799085450E+00
  0.474923264773E+00  0.445004685539E+00  0.416090063876E+00  0.388217887801E+00  0.361419019577E+00
  0.335717260569E+00  0.311129873912E+00  0.287668061553E+00  0.265337398303E+00  0.244138216605E+00
  0.224065950421E+00  0.205111441422E+00  0.187261213716E+00  0.170497726392E+00  0.154799614706E+00
  0.140141931390E+00  0.126496399900E+00  0.113831689302E+00  0.102113717727E+00  0.913059874127E-01
  0.813699497749E-01  0.722653945765E-01  0.639508535410E-01  0.563840062024E-01  0.495220746821E-01
  0.433221945701E-01  0.377417511108E-01  0.327386732009E-01  0.282716818712E-01  0.243004943154E-01
 pseudo wavefunction
  0.878931066723E-12  0.967491337956E-12  0.106497485916E-11  0.117228072865E-11  0.129039863701E-11
  0.142041799517E-11  0.156353798203E-11  0.172107860466E-11  0.189449287281E-11  0.208538020011E-11
  0.229550115560E-11  0.252679370163E-11  0.278139106779E-11  0.306164142590E-11  0.337012954733E-11
  0.370970064263E-11  0.408348660306E-11  0.449493488630E-11  0.494784031262E-11  0.544638006481E-11
  0.599515221467E-11  0.659921813137E-11  0.726414916288E-11  0.799607802092E-11  0.880175534346E-11
  0.968861195640E-11  0.106648274086E-10  0.117394054126E-10  0.129222568864E-10  0.142242913627E-10
  0.156575176087E-10  0.172351543830E-10  0.189717523545E-10  0.208833283030E-10  0.229875128442E-10
  0.253037130379E-10  0.278532913805E-10  0.306597628334E-10  0.337490117029E-10  0.371495303733E-10
  0.408926820945E-10  0.450129902469E-10  0.495484567541E-10  0.545409125766E-10  0.600364035224E-10
  0.660856149305E-10  0.727443391457E-10  0.800739900954E-10  0.881421697148E-10  0.970232914439E-10
  0.106799266549E-09  0.117560259594E-09  0.129405520037E-09  0.142444297614E-09  0.156796849956E-09
  0.172595551732E-09  0.189986115554E-09  0.209128935888E-09  0.230200568389E-09  0.253395358280E-09
  0.278927232810E-09  0.307031674324E-09  0.337967892125E-09  0.372021213177E-09  0.409505713698E-09
  0.450767115895E-09  0.496185976584E-09  0.546181197083E-09  0.601213886763E-09  0.661791615881E-09
  0.728473096921E-09  0.801873337632E-09  0.882669313265E-09  0.971606210344E-09  0.106950429955E-08
  0.117726650112E-08  0.129588671246E-08  0.142645897498E-08  0.157018756435E-08  0.172839809767E-08
  0.190254975960E-08  0.209424876043E-08  0.230526315023E-08  0.253753912553E-08  0.279321897911E-08
  0.307466085836E-08  0.338446051446E-08  0.372547524290E-08  0.410085023630E-08  0.451404759241E-08
  0.496887824490E-08  0.546953711145E-08  0.602064178319E-08  0.662727511256E-08  0.729503209198E-08
  0.803007145610E-08  0.883917248317E-08  0.972979751966E-08  0.107101608046E-07  0.117893042284E-07
  0.129771807251E-07  0.142847460664E-07  0.157240599051E-07  0.173083969990E-07  0.190523696408E-07
  0.209720624246E-07  0.230851805896E-07  0.254112133113E-07  0.279716134438E-07  0.307899953731E-07
  0.338923528045E-07  0.373072984928E-07  0.410663281261E-07  0.452041107974E-07  0.497588087410E-07
  0.547724292837E-07  0.602912122559E-07  0.663660564343E-07  0.730529889498E-07  0.804136819878E-07
  0.885160215464E-07  0.974347334961E-07  0.107252072715E-06  0.118058581650E-06  0.129953925308E-06
  0.143047810359E-06  0.157460996841E-06  0.173326411792E-06  0.190790375064E-06  0.210013948637E-06
  0.231174421859E-06  0.254466946316E-06  0.280106335388E-06  0.308329045099E-06  0.339395354502E-06
  0.373591765709E-06  0.411233645684E-06  0.452668134145E-06  0.498277344383E-06  0.548481886484E-06
  0.603744745442E-06  0.664575549878E-06  0.731535270717E-06  0.805241393105E-06  0.886373609222E-06
  0.975680084437E-06  0.107398435453E-05  0.118219291750E-05  0.130130358993E-05  0.143241470476E-05
  0.157673523534E-05  0.173559593879E-05  0.191046162145E-05  0.210294463916E-05  0.231481975674E-05
  0.254804050343E-05  0.280475717478E-05  0.308733664652E-05  0.339838418286E-05  0.374076743970E-05
  0.411764288344E-05  0.453248486846E-05  0.498911764031E-05  0.549175055902E-05  0.604501686582E-05
  0.665401634976E-05  0.732436230571E-05  0.806223321500E-05  0.887442962310E-05  0.976843673594E-05
  0.107524933092E-04  0.118356674623E-04  0.130279401110E-04  0.143402967845E-04  0.157848286664E-04
  0.173748437846E-04  0.191249893676E-04  0.210513864858E-04  0.231717782077E-04  0.255056926237E-04
  0.280746222264E-04  0.309022212811E-04  0.340145229876E-04  0.374401784074E-04  0.412107193325E-04
  0.453608474837E-04  0.499287526630E-04  0.549564627487E-04  0.604902287009E-04  0.665809480632E-04
  0.732846307875E-04  0.806629115858E-04  0.887836134259E-04  0.977213672419E-04  0.107558293426E-03
  0.118384751212E-03  0.130300162656E-03  0.143413918579E-03  0.157846374537E-03  0.173729945678E-03
  0.191210310198E-03  0.210447732043E-03  0.231618514509E-03  0.254916597539E-03  0.280555312709E-03
  0.308769311229E-03  0.339816681729E-03  0.373981276193E-03  0.411575264103E-03  0.452941936715E-03
  0.498458785455E-03  0.548540880570E-03  0.603644578605E-03  0.664271589819E-03  0.730973439495E-03
  0.804356360050E-03  0.885086654186E-03  0.973896572750E-03  0.107159075478E-02  0.117905328123E-02
  0.129725539814E-02  0.142726396976E-02  0.157025072673E-02  0.172750237999E-02  0.190043167612E-02
  0.209058947603E-02  0.229967794444E-02  0.252956494411E-02  0.278229973525E-02  0.306013008684E-02
  0.336552091348E-02  0.370117455796E-02  0.407005284619E-02  0.447540104752E-02  0.492077387918E-02
  0.541006369891E-02  0.594753103406E-02  0.653783759865E-02  0.718608195128E-02  0.789783794653E-02
  0.867919612927E-02  0.953680821544E-02  0.104779347923E-01  0.115104963568E-01  0.126431277903E-01
  0.138852363394E-01  0.152470631376E-01  0.167397482571E-01  0.183753992217E-01  0.201671628411E-01
  0.221293001409E-01  0.242772640544E-01  0.266277794175E-01  0.291989246540E-01  0.320102143587E-01
  0.350826817716E-01  0.384389598880E-01  0.421033596558E-01  0.461019433756E-01  0.504625910302E-01
  0.552150568247E-01  0.603910127144E-01  0.660240751266E-01  0.721498104442E-01  0.788057141094E-01
  0.860311574253E-01  0.938672952862E-01  0.102356927152E+00  0.111544302620E+00  0.121474861949E+00
  0.132194900875E+00  0.143751148060E+00  0.156190242612E+00  0.169558098294E+00  0.183899140467E+00
  0.199255401513E+00  0.215665460617E+00  0.233163214528E+00  0.251776467339E+00  0.271525329807E+00
  0.292420422368E+00  0.314460881149E+00  0.337632173274E+00  0.361903736873E+00  0.387226472840E+00
  0.413530129891E+00  0.440720642155E+00  0.468677499584E+00  0.497251256092E+00  0.526261308355E+00
  0.555494109222E+00  0.584702012962E+00  0.613602983616E+00  0.641881430528E+00  0.669190463576E+00
  0.695155880660E+00  0.719382206098E+00  0.741461083957E+00  0.760982286492E+00  0.777547514997E+00
  0.790787037509E+00  0.800379013364E+00  0.806071087655E+00  0.807703490460E+00  0.805232442146E+00
  0.798752151047E+00  0.788513109496E+00  0.774933782074E+00  0.758602193068E+00  0.740263444709E+00
  0.720788954728E+00  0.701123349332E+00  0.682205679366E+00  0.664863162211E+00  0.649678212693E+00
  0.636907509845E+00  0.626765923773E+00  0.619513579180E+00  0.615435748783E+00  0.614849299897E+00
  0.000000000000E+00  0.000000000000E+00  0.000000000000E+00  0.000000000000E+00  0.000000000000E+00
  0.000000000000E+00  0.000000000000E+00  0.000000000000E+00  0.000000000000E+00  0.000000000000E+00
  0.000000000000E+00  0.000000000000E+00  0.000000000000E+00  0.000000000000E+00  0.000000000000E+00
  0.000000000000E+00  0.000000000000E+00  0.000000000000E+00  0.000000000000E+00  0.000000000000E+00
  0.000000000000E+00  0.000000000000E+00  0.000000000000E+00  0.000000000000E+00  0.000000000000E+00
 ae wavefunction
 -0.425002798218E-08 -0.464096870644E-08 -0.506525006343E-08 -0.552593348801E-08 -0.602634566900E-08
 -0.657010301137E-08 -0.716113826054E-08 -0.780372949026E-08 -0.850253167371E-08 -0.926261107846E-08
 -0.100894827466E-07 -0.109891513470E-07 -0.119681557105E-07 -0.130336173916E-07 -0.141932936275E-07
 -0.154556351020E-07 -0.168298489601E-07 -0.183259675601E-07 -0.199549234933E-07 -0.217286314543E-07
 -0.236600775975E-07 -0.257634170734E-07 -0.280540805071E-07 -0.305488902480E-07 -0.332661873025E-07
 -0.362259699419E-07 -0.394500450765E-07 -0.429621935834E-07 -0.467883508930E-07 -0.509568042570E-07
 -0.554984082663E-07 -0.604468203052E-07 -0.658387578398E-07 -0.717142795584E-07 -0.781170926214E-07
 -0.850948884548E-07 -0.926997097901E-07 -0.100988351866E-06 -0.110022801027E-06 -0.119870714223E-06
 -0.130605943280E-06 -0.142309108163E-06 -0.155068223837E-06 -0.168979385818E-06 -0.184147519942E-06
 -0.200687202430E-06 -0.218723556907E-06 -0.238393235659E-06 -0.259845493109E-06 -0.283243360267E-06
 -0.308764929713E-06 -0.336604761623E-06 -0.366975422317E-06 -0.400109167932E-06 -0.436259786992E-06
 -0.475704617003E-06 -0.518746751592E-06 -0.565717456351E-06 -0.616978813206E-06 -0.672926615084E-06
 -0.733993534676E-06 -0.800652593416E-06 -0.873420959217E-06 -0.952864104289E-06 -0.103960035731E-05
 -0.113430588745E-05 -0.123772016146E-05 -0.135065191865E-05 -0.147398571326E-05 -0.160868907801E-05
 -0.175582036801E-05 -0.191653734964E-05 -0.209210660521E-05 -0.228391383099E-05 -0.249347511315E-05
 -0.272244927471E-05 -0.297265139491E-05 -0.324606761206E-05 -0.354487133150E-05 -0.387144097161E-05
 -0.422837939326E-05 -0.461853517176E-05 -0.504502588512E-05 -0.551126360883E-05 -0.602098282481E-05
 -0.657827097178E-05 -0.718760188512E-05 -0.785387239731E-05 -0.858244239535E-05 -0.937917865823E-05
 -0.102505028281E-04 -0.112034439002E-04 -0.122456956530E-04 -0.133856794775E-04 -0.146326131059E-04
 -0.159965857881E-04 -0.174886405092E-04 -0.191208639002E-04 -0.209064845475E-04 -0.228599804738E-04
 -0.249971966301E-04 -0.273354733126E-04 -0.298937865011E-04 -0.326929012013E-04 -0.357555389694E-04
 -0.391065608996E-04 -0.427731674671E-04 -0.467851167390E-04 -0.511749625956E-04 -0.559783147444E-04
 -0.612341224624E-04 -0.669849841638E-04 -0.732774850651E-04 -0.801625654149E-04 -0.876959219505E-04
 -0.959384454701E-04 -0.104956697641E-03 -0.114823430415E-03 -0.125618151698E-03 -0.137427741197E-03
 -0.150347120698E-03 -0.164479983327E-03 -0.179939586734E-03 -0.196849615479E-03 -0.215345118312E-03
 -0.235573526470E-03 -0.257695759537E-03 -0.281887425893E-03 -0.308340125279E-03 -0.337262861526E-03
 -0.368883574026E-03 -0.403450797124E-03 -0.441235457170E-03 -0.482532817630E-03 -0.527664583256E-03
 -0.576981175016E-03 -0.630864188114E-03 -0.689729046182E-03 -0.754027865366E-03 -0.824252542774E-03
 -0.900938084452E-03 -0.984666188722E-03 -0.107606910142E-02 -0.117583376025E-02 -0.128470624594E-02
 -0.140349655869E-02 -0.153308373865E-02 -0.167442134968E-02 -0.182854334596E-02 -0.199657034121E-02
 -0.217971630009E-02 -0.237929567155E-02 -0.259673098318E-02 -0.283356091521E-02 -0.309144887171E-02
 -0.337219206554E-02 -0.367773113170E-02 -0.401016028196E-02 -0.437173801077E-02 -0.476489835978E-02
 -0.519226274421E-02 -0.565665234026E-02 -0.616110102727E-02 -0.670886887275E-02 -0.730345614112E-02
 -0.794861779941E-02 -0.864837848395E-02 -0.940704788190E-02 -0.102292364702E-01 -0.111198715411E-01
 -0.120842134300E-01 -0.131278718444E-01 -0.142568221752E-01 -0.154774216549E-01 -0.167964252012E-01
 -0.182210007669E-01 -0.197587439903E-01 -0.214176919124E-01 -0.232063355028E-01 -0.251336307035E-01
 -0.272090076685E-01 -0.294423778456E-01 -0.318441385057E-01 -0.344251742904E-01 -0.371968552971E-01
 -0.401710311754E-01 -0.433600206450E-01 -0.467765957821E-01 -0.504339603497E-01 -0.543457213790E-01
 -0.585258531545E-01 -0.629886527249E-01 -0.677486860625E-01 -0.728207240409E-01 -0.782196674640E-01
 -0.839604604700E-01 -0.900579917086E-01 -0.965269827538E-01 -0.103381863250E+00 -0.110636632300E+00
 -0.118304705582E+00 -0.126398747667E+00 -0.134930488998E+00 -0.143910527036E+00 -0.153348111221E+00
 -0.163250911574E+00 -0.173624771021E+00 -0.184473441769E+00 -0.195798306368E+00 -0.207598084378E+00
 -0.219868525930E+00 -0.232602093839E+00 -0.245787636383E+00 -0.259410053292E+00 -0.273449958039E+00
 -0.287883340006E+00 -0.302681230652E+00 -0.317809378331E+00 -0.333227936955E+00 -0.348891174144E+00
 -0.364747205022E+00 -0.380737758156E+00 -0.396797980542E+00 -0.412856288784E+00 -0.428834273824E+00
 -0.444646666606E+00 -0.460201371804E+00 -0.475399575849E+00 -0.490135933652E+00 -0.504298835086E+00
 -0.517770747591E+00 -0.530428626008E+00 -0.542144377639E+00 -0.552785373259E+00 -0.562215006915E+00
 -0.570293329037E+00 -0.576877802753E+00 -0.581824249311E+00 -0.584988036245E+00 -0.586225510159E+00
 -0.585395605910E+00 -0.582361526298E+00 -0.576992411289E+00 -0.569164973284E+00 -0.558765113983E+00
 -0.545689540324E+00 -0.529847377579E+00 -0.511161759165E+00 -0.489571365074E+00 -0.465031883442E+00
 -0.437517376414E+00 -0.407021537372E+00 -0.373558828813E+00 -0.337165489293E+00 -0.297900394188E+00
 -0.255845750268E+00 -0.211107598792E+00 -0.163816097242E+00 -0.114125546814E+00 -0.622141325253E-01
 -0.828334634589E-02  0.474429289459E-01  0.104719687856E+00  0.163282427550E+00  0.222849137635E+00
  0.283122678096E+00  0.343793593281E+00  0.404543401222E+00  0.465048264848E+00  0.524982592002E+00
  0.584021595049E+00  0.641841691082E+00  0.698118713018E+00  0.752526320788E+00  0.804738535610E+00
  0.854437796616E+00  0.901325038594E+00  0.945127330546E+00  0.985602078099E+00  0.102253932246E+01
  0.105576355561E+01  0.108513552973E+01  0.111055393586E+01  0.113195662776E+01  0.114932110756E+01
  0.116266412799E+01  0.117204041047E+01  0.117754057807E+01  0.117928845151E+01  0.117743787187E+01
  0.117216920328E+01  0.116368565803E+01  0.115220956523E+01  0.113797868513E+01  0.112124265949E+01
  0.110225966015E+01  0.108129329725E+01  0.105860982090E+01  0.103447564886E+01  0.100915523534E+01
  0.982909295189E+00  0.955993384011E+00  0.928656836752E+00  0.901142058952E+00  0.873684165260E+00
  0.846510956732E+00  0.819843229455E+00  0.793895406023E+00  0.768876485958E+00  0.744991311334E+00
  0.722442152313E+00  0.701430621202E+00  0.682159933818E+00  0.664837546854E+00  0.649678212693E+00
  0.636907509845E+00  0.626765923773E+00  0.619513579180E+00  0.615435748783E+00  0.614849299897E+00
  0.000000000000E+00  0.000000000000E+00  0.000000000000E+00  0.000000000000E+00  0.000000000000E+00
  0.000000000000E+00  0.000000000000E+00  0.000000000000E+00  0.000000000000E+00  0.000000000000E+00
  0.000000000000E+00  0.000000000000E+00  0.000000000000E+00  0.000000000000E+00  0.000000000000E+00
  0.000000000000E+00  0.000000000000E+00  0.000000000000E+00  0.000000000000E+00  0.000000000000E+00
  0.000000000000E+00  0.000000000000E+00  0.000000000000E+00  0.000000000000E+00  0.000000000000E+00
 pseudo wavefunction
  0.385096542387E-04  0.397618921280E-04  0.410548496698E-04  0.423898509658E-04  0.437682631738E-04
  0.451914979086E-04  0.466610126869E-04  0.481783124204E-04  0.497449509566E-04  0.513625326703E-04
  0.530327141067E-04  0.547572056776E-04  0.565377734132E-04  0.583762407705E-04  0.602744905010E-04
  0.622344665782E-04  0.642581761892E-04  0.663476917897E-04  0.685051532263E-04  0.707327699283E-04
  0.730328231701E-04  0.754076684074E-04  0.778597376897E-04  0.803915421503E-04  0.830056745786E-04
  0.857048120751E-04  0.884917187927E-04  0.913692487680E-04  0.943403488435E-04  0.974080616860E-04
  0.100575528902E-03  0.103845994255E-03  0.107222806989E-03  0.110709425255E-03  0.114309419656E-03
  0.118026476903E-03  0.121864403586E-03  0.125827130081E-03  0.129918714566E-03  0.134143347182E-03
  0.138505354325E-03  0.143009203073E-03  0.147659505761E-03  0.152461024709E-03  0.157418677093E-03
  0.162537539985E-03  0.167822855552E-03  0.173280036420E-03  0.178914671224E-03  0.184732530325E-03
  0.190739571724E-03  0.196941947159E-03  0.203346008412E-03  0.209958313804E-03  0.216785634921E-03
  0.223834963542E-03  0.231113518804E-03  0.238628754590E-03  0.246388367167E-03  0.254400303066E-03
  0.262672767221E-03  0.271214231368E-03  0.280033442726E-03  0.289139432952E-03  0.298541527392E-03
  0.308249354627E-03  0.318272856341E-03  0.328622297496E-03  0.339308276845E-03  0.350341737791E-03
  0.361733979589E-03  0.373496668920E-03  0.385641851839E-03  0.398181966111E-03  0.411129853948E-03
  0.424498775164E-03  0.438302420750E-03  0.452554926899E-03  0.467270889483E-03  0.482465378996E-03
  0.498153955996E-03  0.514352687034E-03  0.531078161113E-03  0.548347506676E-03  0.566178409145E-03
  0.584589129038E-03  0.603598520668E-03  0.623226051452E-03  0.643491821851E-03  0.664416585953E-03
  0.686021772732E-03  0.708329507991E-03  0.731362637027E-03  0.755144748024E-03  0.779700196216E-03
  0.805054128827E-03  0.831232510832E-03  0.858262151545E-03  0.886170732082E-03  0.914986833710E-03
  0.944739967120E-03  0.975460602656E-03  0.100718020152E-02  0.103993124801E-02  0.107374728276E-02
  0.110866293714E-02  0.114471396869E-02  0.118193729777E-02  0.122037104537E-02  0.126005457216E-02
  0.130102851881E-02  0.134333484762E-02  0.138701688549E-02  0.143211936836E-02  0.147868848696E-02
  0.152677193419E-02  0.157641895397E-02  0.162768039166E-02  0.168060874619E-02  0.173525822384E-02
  0.179168479376E-02  0.184994624534E-02  0.191010224741E-02  0.197221440939E-02  0.203634634444E-02
  0.210256373461E-02  0.217093439820E-02  0.224152835923E-02  0.231441791924E-02  0.238967773136E-02
  0.246738487687E-02  0.254761894422E-02  0.263046211059E-02  0.271599922616E-02  0.280431790113E-02
  0.289550859553E-02  0.298966471200E-02  0.308688269158E-02  0.318726211264E-02  0.329090579301E-02
  0.339791989549E-02  0.350841403676E-02  0.362250139987E-02  0.374029885040E-02  0.386192705642E-02
  0.398751061239E-02  0.411717816705E-02  0.425106255558E-02  0.438930093602E-02  0.453203493019E-02
  0.467941076921E-02  0.483157944381E-02  0.498869685954E-02  0.515092399711E-02  0.531842707796E-02
  0.549137773529E-02  0.566995319069E-02  0.585433643664E-02  0.604471642494E-02  0.624128826137E-02
  0.644425340685E-02  0.665381988511E-02  0.687020249733E-02  0.709362304380E-02  0.732431055300E-02
  0.756250151820E-02  0.780844014194E-02  0.806237858868E-02  0.832457724577E-02  0.859530499319E-02
  0.887483948230E-02  0.916346742384E-02  0.946148488566E-02  0.976919760039E-02  0.100869212835E-01
  0.104149819620E-01  0.107537163144E-01  0.111034720220E-01  0.114646081323E-01  0.118374954345E-01
  0.122225168481E-01  0.126200678249E-01  0.130305567641E-01  0.134544054429E-01  0.138920494606E-01
  0.143439386994E-01  0.148105378006E-01  0.152923266574E-01  0.157898009252E-01  0.163034725504E-01
  0.168338703170E-01  0.173815404134E-01  0.179470470197E-01  0.185309729153E-01  0.191339201098E-01
  0.197565104959E-01  0.203993865270E-01  0.210632119194E-01  0.217486723814E-01  0.224564763690E-01
  0.231873558706E-01  0.239420672225E-01  0.247213919541E-01  0.255261376677E-01  0.263571389519E-01
  0.272152583319E-01  0.281013872566E-01  0.290164471274E-01  0.299613903680E-01  0.309372015385E-01
  0.319448984966E-01  0.329855336075E-01  0.340601950062E-01  0.351700079141E-01  0.363161360134E-01
  0.374997828833E-01  0.387221935006E-01  0.399846558084E-01  0.412885023583E-01  0.426351120295E-01
  0.440259118290E-01  0.454623787797E-01  0.469460419002E-01  0.484784842831E-01  0.500613452775E-01
  0.516963227834E-01  0.533851756638E-01  0.551297262835E-01  0.569318631827E-01  0.587935438937E-01
  0.607167979114E-01  0.627037298262E-01  0.647565226325E-01  0.668774412218E-01  0.690688360757E-01
  0.713331471692E-01  0.736729081007E-01  0.760907504626E-01  0.785894084674E-01  0.811717238474E-01
  0.838406510447E-01  0.865992627092E-01  0.894507555239E-01  0.923984563766E-01  0.954458288989E-01
  0.985964803908E-01  0.101854169154E+00  0.105222812251E+00  0.108706493712E+00  0.112309473207E+00
  0.116036195203E+00  0.119891298614E+00  0.123879626966E+00  0.128006239075E+00  0.132276420252E+00
  0.136695694015E+00  0.141269834314E+00  0.146004878232E+00  0.150907139137E+00  0.155983220225E+00
  0.161240028392E+00  0.166684788334E+00  0.172325056767E+00  0.178168736599E+00  0.184224090874E+00
  0.190499756245E+00  0.197004755682E+00  0.203748510069E+00  0.210740848242E+00  0.217992014970E+00
  0.225512676252E+00  0.233313921195E+00  0.241407259610E+00  0.249804614307E+00  0.258518306889E+00
  0.267561035661E+00  0.276945844029E+00  0.286686077528E+00  0.296795327339E+00  0.307287357827E+00
  0.318176015316E+00  0.329475114942E+00  0.341198302009E+00  0.353358883883E+00  0.365969628005E+00
  0.379042521144E+00  0.392588484604E+00  0.406617039633E+00  0.421135916940E+00  0.436150603901E+00
  0.451663822852E+00  0.467674933839E+00  0.484179255376E+00  0.501167297253E+00  0.518623900295E+00
  0.536527279303E+00  0.554847967382E+00  0.573547662494E+00  0.592577980671E+00  0.611879124911E+00
  0.631378484607E+00  0.650989187550E+00  0.670608635282E+00  0.690117062946E+00  0.709376176872E+00
  0.728227936859E+00  0.746493565414E+00  0.763972882594E+00  0.780444082059E+00  0.795664080572E+00
  0.809369588044E+00  0.821279056657E+00  0.831095673106E+00  0.838511554635E+00  0.843209189548E+00
  0.844947908306E+00  0.843737023850E+00  0.839667848662E+00  0.832846218318E+00  0.823391603899E+00
  0.811436196049E+00  0.797123943548E+00  0.780609525949E+00  0.762057253002E+00  0.741639849553E+00
  0.719537131710E+00  0.695934556548E+00  0.671021644333E+00  0.644990284459E+00  0.618032951141E+00
  0.590340866271E+00  0.562102168134E+00  0.533500146583E+00  0.504711611323E+00  0.475905456498E+00
  0.447241471340E+00  0.418869427885E+00  0.390928453136E+00  0.363546667464E+00  0.336841046897E+00
  0.310917447466E+00  0.285870718337E+00  0.261784829630E+00  0.238732951873E+00  0.216777446185E+00
 ae wavefunction
  0.204051917216E-02  0.210243773247E-02  0.216622276490E-02  0.223192977309E-02  0.229961586203E-02
  0.236933978124E-02  0.244116196881E-02  0.251514459649E-02  0.259135161573E-02  0.266984880471E-02
  0.275070381628E-02  0.283398622694E-02  0.291976758679E-02  0.300812147042E-02  0.309912352878E-02
  0.319285154196E-02  0.328938547298E-02  0.338880752244E-02  0.349120218407E-02  0.359665630123E-02
  0.370525912421E-02  0.381710236833E-02  0.393228027292E-02  0.405088966097E-02  0.417302999958E-02
  0.429880346099E-02  0.442831498427E-02  0.456167233761E-02  0.469898618102E-02  0.484037012953E-02
  0.498594081668E-02  0.513581795833E-02  0.529012441659E-02  0.544898626388E-02  0.561253284685E-02
  0.578089685027E-02  0.595421436050E-02  0.613262492863E-02  0.631627163292E-02  0.650530114057E-02
  0.669986376851E-02  0.690011354300E-02  0.710620825798E-02  0.731830953168E-02  0.753658286154E-02
  0.776119767688E-02  0.799232738931E-02  0.823014944027E-02  0.847484534566E-02  0.872660073695E-02
  0.898560539856E-02  0.925205330102E-02  0.952614262941E-02  0.980807580677E-02  0.100980595118E-01
  0.103963046903E-01  0.107030265601E-01  0.110184446083E-01  0.113427825807E-01  0.116762684624E-01
  0.120191344488E-01  0.123716169064E-01  0.127339563228E-01  0.131063972438E-01  0.134891881984E-01
  0.138825816094E-01  0.142868336886E-01  0.147022043165E-01  0.151289569038E-01  0.155673582346E-01
  0.160176782896E-01  0.164801900472E-01  0.169551692620E-01  0.174428942189E-01  0.179436454599E-01
  0.184577054839E-01  0.189853584158E-01  0.195268896435E-01  0.200825854212E-01  0.206527324366E-01
  0.212376173385E-01  0.218375262243E-01  0.224527440842E-01  0.230835541978E-01  0.237302374831E-01
  0.243930717929E-01  0.250723311563E-01  0.257682849621E-01  0.264811970809E-01  0.272113249219E-01
  0.279589184216E-01  0.287242189600E-01  0.295074582010E-01  0.303088568522E-01  0.311286233415E-01
  0.319669524037E-01  0.328240235759E-01  0.336999995945E-01  0.345950246905E-01  0.355092227782E-01
  0.364426955323E-01  0.373955203490E-01  0.383677481852E-01  0.393594012715E-01  0.403704706948E-01
  0.414009138429E-01  0.424506517093E-01  0.435195660509E-01  0.446074963949E-01  0.457142368895E-01
  0.468395329952E-01  0.479830780103E-01  0.491445094289E-01  0.503234051255E-01  0.515192793649E-01
  0.527315786338E-01  0.539596772909E-01  0.552028730363E-01  0.564603821971E-01  0.577313348311E-01
  0.590147696477E-01  0.603096287510E-01  0.616147522057E-01  0.629288724324E-01  0.642506084387E-01
  0.655784598933E-01  0.669108010544E-01  0.682458745637E-01  0.695817851219E-01  0.709164930612E-01
  0.722478078370E-01  0.735733814596E-01  0.748907018951E-01  0.761970864628E-01  0.774896752665E-01
  0.787654246944E-01  0.800211010347E-01  0.812532742510E-01  0.824583119741E-01  0.836323737663E-01
  0.847714057252E-01  0.858711354971E-01  0.869270677783E-01  0.879344803890E-01  0.888884210132E-01
  0.897837047035E-01  0.906149122601E-01  0.913763896001E-01  0.920622482420E-01  0.926663670400E-01
  0.931823953109E-01  0.936037575036E-01  0.939236595752E-01  0.941350972401E-01  0.942308662721E-01
  0.942035750453E-01  0.940456595086E-01  0.937494007941E-01  0.933069456685E-01  0.927103300383E-01
  0.919515057273E-01  0.910223707444E-01  0.899148032610E-01  0.886206995162E-01  0.871320158626E-01
  0.854408151599E-01  0.835393177119E-01  0.814199569285E-01  0.790754398783E-01  0.764988128714E-01
  0.736835321872E-01  0.706235400276E-01  0.673133457380E-01  0.637481122901E-01  0.599237479720E-01
  0.558370031664E-01  0.514855720335E-01  0.468681988327E-01  0.419847885359E-01  0.368365212847E-01
  0.314259701387E-01  0.257572214474E-01  0.198359970519E-01  0.136697773929E-01  0.726792446910E-02
  0.641803456904E-03 -0.619509832139E-02 -0.132270565092E-01 -0.204360004428E-01 -0.278014111376E-01
 -0.353002282991E-01 -0.429067682868E-01 -0.505926551710E-01 -0.583267672867E-01 -0.660752019922E-01
 -0.738012616270E-01 -0.814654639094E-01 -0.890255801645E-01 -0.964367048184E-01 -0.103651359524E+00
 -0.110619635098E+00 -0.117289374190E+00 -0.123606397276E+00 -0.129514774265E+00 -0.134957143688E+00
 -0.139875081115E+00 -0.144209518072E+00 -0.147901212258E+00 -0.150891269298E+00 -0.153121715622E+00
 -0.154536121281E+00 -0.155080270712E+00 -0.154702878499E+00 -0.153356346191E+00 -0.150997555104E+00
 -0.147588688864E+00 -0.143098078152E+00 -0.137501058820E+00 -0.130780833169E+00 -0.122929322814E+00
 -0.113948000231E+00 -0.103848684804E+00 -0.926542880305E-01 -0.803994915261E-01 -0.671313406731E-01
 -0.529097361410E-01 -0.378078052144E-01 -0.219121348800E-01 -0.532284916222E-02  0.118464855162E-01
  0.294691407825E-01  0.474057026983E-01  0.655047494476E-01  0.836037310983E-01  0.101530049874E+00
  0.119102341511E+00  0.136131965432E+00  0.152424720548E+00  0.167782806697E+00  0.182007039551E+00
  0.194899298800E+00  0.206265161384E+00  0.215916662232E+00  0.223675134681E+00  0.229374095037E+00
  0.232862138294E+00  0.234005805473E+00  0.232692374494E+00  0.228832521578E+00  0.222362800175E+00
  0.213247887684E+00  0.201482554460E+00  0.187093313183E+00  0.170139709268E+00  0.150715214653E+00
  0.128947688691E+00  0.104999371482E+00  0.790663774935E-01  0.513776615217E-01  0.221934356326E-01
 -0.819697462272E-02 -0.394778338321E-01 -0.713102449033E-01 -0.103335913273E+00 -0.135181390664E+00
 -0.166462762109E+00 -0.196790743089E+00 -0.225776136223E+00 -0.253035511434E+00 -0.278196777267E+00
 -0.300904068766E+00 -0.320821384008E+00 -0.337635061061E+00 -0.351056390480E+00 -0.360826165828E+00
 -0.366721421449E+00 -0.368562273214E+00 -0.366216704987E+00 -0.359603019398E+00 -0.348690781885E+00
 -0.333500900942E+00 -0.314105015436E+00 -0.290624120833E+00 -0.263226337494E+00 -0.232123795314E+00
 -0.197568701718E+00 -0.159848731501E+00 -0.119281913884E+00 -0.762111997992E-01 -0.309988826549E-01
  0.159789734756E-01  0.643379658803E-01  0.113690536192E+00  0.163650817123E+00  0.213839076949E+00
  0.263885714529E+00  0.313434776302E+00  0.362146980643E+00  0.409702249845E+00  0.455801759958E+00
  0.500169530375E+00  0.542553580720E+00  0.582726691504E+00  0.620486808099E+00  0.655657132169E+00
  0.688085945726E+00  0.717646213922E+00  0.744235010190E+00  0.767772806612E+00  0.788202665810E+00
  0.805489368975E+00  0.819618506711E+00  0.830595555128E+00  0.838444952985E+00  0.843209189548E+00
  0.844947908306E+00  0.843737023850E+00  0.839667848662E+00  0.832846218318E+00  0.823391603899E+00
  0.811436196049E+00  0.797123943548E+00  0.780609525949E+00  0.762057253002E+00  0.741639849553E+00
  0.719537131710E+00  0.695934556548E+00  0.671021644333E+00  0.644990284459E+00  0.618032951141E+00
  0.590340866271E+00  0.562102168134E+00  0.533500146583E+00  0.504711611323E+00  0.475905456498E+00
  0.447241471340E+00  0.418869427885E+00  0.390928453136E+00  0.363546667464E+00  0.336841046897E+00
  0.310917447466E+00  0.285870718337E+00  0.261784829630E+00  0.238732951873E+00  0.216777446185E+00
 pseudo wavefunction
  0.679185009861E-04  0.701270412088E-04  0.724073976507E-04  0.747619055960E-04  0.771929762667E-04
  0.797030992917E-04  0.822948452565E-04  0.849708683356E-04  0.877339090105E-04  0.905867968765E-04
  0.935324535403E-04  0.965738956118E-04  0.997142377938E-04  0.102956696071E-03  0.106304591005E-03
  0.109761351133E-03  0.113330516478E-03  0.117015742180E-03  0.120820802231E-03  0.124749593346E-03
  0.128806138951E-03  0.132994593303E-03  0.137319245746E-03  0.141784525103E-03  0.146395004211E-03
  0.151155404603E-03  0.156070601348E-03  0.161145628036E-03  0.166385681939E-03  0.171796129332E-03
  0.177382510987E-03  0.183150547847E-03  0.189106146889E-03  0.195255407167E-03  0.201604626063E-03
  0.208160305735E-03  0.214929159772E-03  0.221918120076E-03  0.229134343955E-03  0.236585221455E-03
  0.244278382930E-03  0.252221706852E-03  0.260423327883E-03  0.268891645204E-03  0.277635331116E-03
  0.286663339923E-03  0.295984917099E-03  0.305609608762E-03  0.315547271442E-03  0.325808082181E-03
  0.336402548956E-03  0.347341521434E-03  0.358636202090E-03  0.370298157673E-03  0.382339331057E-03
  0.394772053469E-03  0.407609057117E-03  0.420863488232E-03  0.434548920525E-03  0.448679369095E-03
  0.463269304776E-03  0.478333668962E-03  0.493887888903E-03  0.509947893507E-03  0.526530129653E-03
  0.543651579035E-03  0.561329775550E-03  0.579582823258E-03  0.598429414920E-03  0.617888851142E-03
  0.637981060143E-03  0.658726618161E-03  0.680146770527E-03  0.702263453423E-03  0.725099316345E-03
  0.748677745301E-03  0.773022886761E-03  0.798159672385E-03  0.824113844556E-03  0.850911982746E-03
  0.878581530734E-03  0.907150824712E-03  0.936649122309E-03  0.967106632550E-03  0.998554546800E-03
  0.103102507070E-02  0.106455145717E-02  0.109916804042E-02  0.113491027119E-02  0.117181475297E-02
  0.120991927957E-02  0.124926287375E-02  0.128988582724E-02  0.133182974202E-02  0.137513757285E-02
  0.141985367135E-02  0.146602383139E-02  0.151369533596E-02  0.156291700568E-02  0.161373924872E-02
  0.166621411248E-02  0.172039533689E-02  0.177633840944E-02  0.183410062203E-02  0.189374112967E-02
  0.195532101102E-02  0.201890333101E-02  0.208455320541E-02  0.215233786754E-02  0.222232673716E-02
  0.229459149153E-02  0.236920613890E-02  0.244624709430E-02  0.252579325780E-02  0.260792609541E-02
  0.269272972244E-02  0.278029098979E-02  0.287069957287E-02  0.296404806347E-02  0.306043206470E-02
  0.315995028888E-02  0.326270465873E-02  0.336880041180E-02  0.347834620836E-02  0.359145424267E-02
  0.370824035807E-02  0.382882416565E-02  0.395332916685E-02  0.408188288010E-02  0.421461697150E-02
  0.435166738984E-02  0.449317450594E-02  0.463928325664E-02  0.479014329335E-02  0.494590913558E-02
  0.510674032940E-02  0.527280161110E-02  0.544426307612E-02  0.562130035366E-02  0.580409478681E-02
  0.599283361865E-02  0.618771018447E-02  0.638892411018E-02  0.659668151726E-02  0.681119523445E-02
  0.703268501625E-02  0.726137776871E-02  0.749750778252E-02  0.774131697379E-02  0.799305513265E-02
  0.825298018012E-02  0.852135843331E-02  0.879846487933E-02  0.908458345830E-02  0.938000735555E-02
  0.968503930346E-02  0.999999189331E-02  0.103251878973E-01  0.106609606014E-01  0.110076541486E-01
  0.113656238947E-01  0.117352367742E-01  0.121168716799E-01  0.125109198542E-01  0.129177852935E-01
  0.133378851660E-01  0.137716502440E-01  0.142195253497E-01  0.146819698166E-01  0.151594579659E-01
  0.156524795993E-01  0.161615405076E-01  0.166871629975E-01  0.172298864350E-01  0.177902678080E-01
  0.183688823078E-01  0.189663239299E-01  0.195832060955E-01  0.202201622950E-01  0.208778467519E-01
  0.215569351112E-01  0.222581251503E-01  0.229821375154E-01  0.237297164827E-01  0.245016307469E-01
  0.252986742366E-01  0.261216669590E-01  0.269714558740E-01  0.278489157998E-01  0.287549503503E-01
  0.296904929065E-01  0.306565076233E-01  0.316539904719E-01  0.326839703215E-01  0.337475100600E-01
  0.348457077565E-01  0.359796978670E-01  0.371506524862E-01  0.383597826458E-01  0.396083396629E-01
  0.408976165408E-01  0.422289494235E-01  0.436037191077E-01  0.450233526153E-01  0.464893248281E-01
  0.480031601889E-01  0.495664344724E-01  0.511807766293E-01  0.528478707074E-01  0.545694578539E-01
  0.563473384037E-01  0.581833740581E-01  0.600794901590E-01  0.620376780643E-01  0.640599976299E-01
  0.661485798054E-01  0.683056293492E-01  0.705334276706E-01  0.728343358073E-01  0.752107975452E-01
  0.776653426904E-01  0.802005905030E-01  0.828192533018E-01  0.855241402519E-01  0.883181613467E-01
  0.912043315958E-01  0.941857754336E-01  0.972657313619E-01  0.100447556842E+00  0.103734733451E+00
  0.107130872325E+00  0.110639719897E+00  0.114265163962E+00  0.118011240077E+00  0.121882138329E+00
  0.125882210479E+00  0.130015977527E+00  0.134288137700E+00  0.138703574897E+00  0.143267367631E+00
  0.147984798465E+00  0.152861363997E+00  0.157902785405E+00  0.163115019580E+00  0.168504270879E+00
  0.174077003507E+00  0.179839954565E+00  0.185800147767E+00  0.191964907846E+00  0.198341875648E+00
  0.204939023916E+00  0.211764673746E+00  0.218827511696E+00  0.226136607489E+00  0.233701432263E+00
  0.241531877282E+00  0.249638272966E+00  0.258031408129E+00  0.266722549186E+00  0.275723459127E+00
  0.285046415913E+00  0.294704229950E+00  0.304710260164E+00  0.315078428112E+00  0.325823229479E+00
  0.336959742119E+00  0.348503629699E+00  0.360471139780E+00  0.372879094981E+00  0.385744875627E+00
  0.399086391986E+00  0.412922043915E+00  0.427270665341E+00  0.442151450615E+00  0.457583859309E+00
  0.473587495507E+00  0.490181957092E+00  0.507386649847E+00  0.525220560558E+00  0.543701982509E+00
  0.562848185970E+00  0.582675025431E+00  0.603196474430E+00  0.624424077965E+00  0.646366311534E+00
  0.669027835076E+00  0.692408629285E+00  0.716503001263E+00  0.741298446080E+00  0.766774350874E+00
  0.792900528601E+00  0.819635569651E+00  0.846925001500E+00  0.874699249535E+00  0.902871396440E+00
  0.931334743430E+00  0.959960184367E+00  0.988593413905E+00  0.101705200356E+01  0.104512239542E+01
  0.107255688265E+01  0.109907066870E+01  0.112433912472E+01  0.114799539540E+01  0.116962853875E+01
  0.118878242373E+01  0.120495565026E+01  0.121760279748E+01  0.122613734544E+01  0.122993664939E+01
  0.122834936945E+01  0.122070576574E+01  0.120633125215E+01  0.118456355205E+01  0.115477370471E+01
  0.111647501466E+01  0.106958309210E+01  0.101414538880E+01  0.950255682034E+00  0.878056523994E+00
  0.000000000000E+00  0.000000000000E+00  0.000000000000E+00  0.000000000000E+00  0.000000000000E+00
  0.000000000000E+00  0.000000000000E+00  0.000000000000E+00  0.000000000000E+00  0.000000000000E+00
  0.000000000000E+00  0.000000000000E+00  0.000000000000E+00  0.000000000000E+00  0.000000000000E+00
  0.000000000000E+00  0.000000000000E+00  0.000000000000E+00  0.000000000000E+00  0.000000000000E+00
  0.000000000000E+00  0.000000000000E+00  0.000000000000E+00  0.000000000000E+00  0.000000000000E+00
 ae wavefunction
  0.342218644819E-02  0.352603102523E-02  0.363300589109E-02  0.374320413176E-02  0.385672151887E-02
  0.397365658207E-02  0.409411068299E-02  0.421818809080E-02  0.434599605940E-02  0.447764490631E-02
  0.461324809311E-02  0.475292230758E-02  0.489678754742E-02  0.504496720563E-02  0.519758815749E-02
  0.535478084912E-02  0.551667938762E-02  0.568342163278E-02  0.585514929024E-02  0.603200800624E-02
  0.621414746365E-02  0.640172147954E-02  0.659488810398E-02  0.679380972016E-02  0.699865314570E-02
  0.720958973506E-02  0.742679548301E-02  0.765045112900E-02  0.788074226244E-02  0.811785942859E-02
  0.836199823511E-02  0.861335945905E-02  0.887214915405E-02  0.913857875778E-02  0.941286519917E-02
  0.969523100555E-02  0.998590440904E-02  0.102851194525E-01  0.105931160943E-01  0.109101403117E-01
  0.112364442031E-01  0.115722860877E-01  0.119179306036E-01  0.122736488027E-01  0.126397182424E-01
  0.130164230747E-01  0.134040541300E-01  0.138029089973E-01  0.142132920987E-01  0.146355147589E-01
  0.150698952670E-01  0.155167589330E-01  0.159764381349E-01  0.164492723584E-01  0.169356082259E-01
  0.174357995167E-01  0.179502071742E-01  0.184791993021E-01  0.190231511460E-01  0.195824450613E-01
  0.201574704645E-01  0.207486237674E-01  0.213563082928E-01  0.219809341700E-01  0.226229182080E-01
  0.232826837459E-01  0.239606604776E-01  0.246572842491E-01  0.253729968270E-01  0.261082456354E-01
  0.268634834587E-01  0.276391681087E-01  0.284357620530E-01  0.292537320022E-01  0.300935484524E-01
  0.309556851808E-01  0.318406186912E-01  0.327488276052E-01  0.336807919971E-01  0.346369926669E-01
  0.356179103494E-01  0.366240248543E-01  0.376558141326E-01  0.387137532667E-01  0.397983133771E-01
  0.409099604430E-01  0.420491540296E-01  0.432163459190E-01  0.444119786375E-01  0.456364838739E-01
  0.468902807829E-01  0.481737741680E-01  0.494873525359E-01  0.508313860171E-01  0.522062241455E-01
  0.536121934891E-01  0.550495951250E-01  0.565187019518E-01  0.580197558300E-01  0.595529645445E-01
  0.611184985794E-01  0.627164876978E-01  0.643470173180E-01  0.660101246785E-01  0.677057947818E-01
  0.694339561102E-01  0.711944761042E-01  0.729871563959E-01  0.748117277883E-01  0.766678449743E-01
  0.785550809862E-01  0.804729213686E-01  0.824207580697E-01  0.843978830426E-01  0.864034815523E-01
  0.884366251844E-01  0.904962645498E-01  0.925812216851E-01  0.946901821457E-01  0.968216867934E-01
  0.989741232780E-01  0.101145717219E+00  0.103334523092E+00  0.105538414829E+00  0.107755076141E+00
  0.109981990578E+00  0.112216431347E+00  0.114455450903E+00  0.116695870340E+00  0.118934268610E+00
  0.121166971608E+00  0.123390041153E+00  0.125599263922E+00  0.127790140373E+00  0.129957873729E+00
  0.132097359074E+00  0.134203172646E+00  0.136269561393E+00  0.138290432899E+00  0.140259345764E+00
  0.142169500546E+00  0.144013731404E+00  0.145784498550E+00  0.147473881662E+00  0.149073574415E+00
  0.150574880300E+00  0.151968709900E+00  0.153245579835E+00  0.154395613574E+00  0.155408544344E+00
  0.156273720376E+00  0.156980112735E+00  0.157516326020E+00  0.157870612199E+00  0.158030887888E+00
  0.157984755395E+00  0.157719527831E+00  0.157222258655E+00  0.156479775977E+00  0.155478721993E+00
  0.154205597899E+00  0.152646814674E+00  0.150788750072E+00  0.148617812217E+00  0.146120510135E+00
  0.143283531587E+00  0.140093828521E+00  0.136538710451E+00  0.132605946048E+00  0.128283873164E+00
  0.123561517492E+00  0.118428719997E+00  0.112876273181E+00  0.106896066182E+00  0.100481238609E+00
  0.936263429197E-01  0.863275150271E-01  0.785826526924E-01  0.703916011220E-01  0.617563450182E-01
  0.526812061551E-01  0.431730453606E-01  0.332414675738E-01  0.228990284271E-01  0.121614405831E-01
  0.104777782897E-02 -0.104193252711E-01 -0.222134805659E-01 -0.343043629244E-01 -0.466575390184E-01
 -0.592343112475E-01 -0.719915800388E-01 -0.848817281159E-01 -0.978525307751E-01 -0.110847096711E+00
 -0.123803844421E+00 -0.136656519631E+00 -0.149334259434E+00 -0.161761708909E+00 -0.173859195874E+00
 -0.185542969125E+00 -0.196725505043E+00 -0.207315886960E+00 -0.217220261105E+00 -0.226342372464E+00
 -0.234584183312E+00 -0.241846576569E+00 -0.248030145337E+00 -0.253036069024E+00 -0.256767075363E+00
 -0.259128486378E+00 -0.260029344937E+00 -0.259383616968E+00 -0.257111462731E+00 -0.253140568644E+00
 -0.247407529178E+00 -0.239859266195E+00 -0.230454470890E+00 -0.219165051199E+00 -0.205977565241E+00
 -0.190894619123E+00 -0.173936205264E+00 -0.155140955475E+00 -0.134567281289E+00 -0.112294372685E+00
 -0.884230253382E-01 -0.630762659725E-01 -0.363997454544E-01 -0.856187012732E-02  0.202463559536E-01
  0.498118012324E-01  0.799000064443E-01  0.110256323157E+00  0.140607392528E+00  0.170662961851E+00
  0.200118040110E+00  0.228655405717E+00  0.255948494925E+00  0.281664704675E+00  0.305469123120E+00
  0.327028654090E+00  0.346016454555E+00  0.362116588680E+00  0.375028818238E+00  0.384473469823E+00
  0.390196323444E+00  0.391973456026E+00  0.389615958911E+00  0.382974440139E+00  0.371943222182E+00
  0.356464151187E+00  0.336529940769E+00  0.312186979251E+00  0.283537533460E+00  0.250741284835E+00
  0.214016135757E+00  0.173638226605E+00  0.129941108105E+00  0.833140205398E-01  0.341992423843E-01
 -0.169115128782E-01 -0.694816518402E-01 -0.122935184043E+00 -0.176663086275E+00 -0.230030488576E+00
 -0.282384622476E+00 -0.333063476942E+00 -0.381405077479E+00 -0.426757158942E+00 -0.468486672273E+00
 -0.505988160257E+00 -0.538690054676E+00 -0.566059061697E+00 -0.587604819236E+00 -0.602887841402E+00
 -0.611531138360E+00 -0.613231993624E+00 -0.607770286276E+00 -0.595012901329E+00 -0.574915621976E+00
 -0.547523575221E+00 -0.512970509213E+00 -0.471476782982E+00 -0.423345904962E+00 -0.368959578712E+00
 -0.308771370867E+00 -0.243299236037E+00 -0.173117194309E+00 -0.988464689471E-01 -0.211463744908E-01
  0.592947875514E-01  0.141768605306E+00  0.225555024715E+00  0.309930266302E+00  0.394174084157E+00
  0.477576292785E+00  0.559442520212E+00  0.639099169755E+00  0.715897599282E+00  0.789217544586E+00
  0.858469834578E+00  0.923098456680E+00  0.982582047454E+00  0.103643488978E+01  0.108420750703E+01
  0.112548694737E+01  0.115989685363E+01  0.118709741038E+01  0.120678525909E+01  0.121869345976E+01
  0.122259157457E+01  0.121828593387E+01  0.120562013535E+01  0.118447581376E+01  0.115477370471E+01
  0.111647501466E+01  0.106958309210E+01  0.101414538880E+01  0.950255682034E+00  0.878056523994E+00
  0.000000000000E+00  0.000000000000E+00  0.000000000000E+00  0.000000000000E+00  0.000000000000E+00
  0.000000000000E+00  0.000000000000E+00  0.000000000000E+00  0.000000000000E+00  0.000000000000E+00
  0.000000000000E+00  0.000000000000E+00  0.000000000000E+00  0.000000000000E+00  0.000000000000E+00
  0.000000000000E+00  0.000000000000E+00  0.000000000000E+00  0.000000000000E+00  0.000000000000E+00
  0.000000000000E+00  0.000000000000E+00  0.000000000000E+00  0.000000000000E+00  0.000000000000E+00
 pseudo wavefunction
  0.294824718558E-08  0.314310391431E-08  0.335083919165E-08  0.357230419180E-08  0.380840634507E-08
  0.406011305601E-08  0.432845566729E-08  0.461453368545E-08  0.491951928609E-08  0.524466211670E-08
  0.559129441695E-08  0.596083647745E-08  0.635480245922E-08  0.677480659779E-08  0.722256981743E-08
  0.769992678239E-08  0.820883341430E-08  0.875137490634E-08  0.932977426710E-08  0.994640142916E-08
  0.106037829596E-07  0.113046124124E-07  0.120517613651E-07  0.128482911844E-07  0.136974655704E-07
  0.146027639287E-07  0.155678956273E-07  0.165968151954E-07  0.176937385261E-07  0.188631601514E-07
  0.201098716574E-07  0.214389813180E-07  0.228559350247E-07  0.243665386015E-07  0.259769815929E-07
  0.276938626255E-07  0.295242164448E-07  0.314755427397E-07  0.335558368712E-07  0.357736226334E-07
  0.381379871780E-07  0.406586182486E-07  0.433458438750E-07  0.462106746912E-07  0.492648490505E-07
  0.525208811224E-07  0.559921121675E-07  0.596927652027E-07  0.636380032781E-07  0.678439916063E-07
  0.723279637977E-07  0.771082924732E-07  0.822045645446E-07  0.876376614699E-07  0.934298448126E-07
  0.996048474566E-07  0.106187970849E-06  0.113206188671E-06  0.120688257359E-06  0.128664833931E-06
  0.137168601602E-06  0.146234403699E-06  0.155899386427E-06  0.166203151077E-06  0.177187916281E-06
  0.188898691003E-06  0.201383458959E-06  0.214693375225E-06  0.228882975837E-06  0.244010401253E-06
  0.260137634570E-06  0.277330755502E-06  0.295660211127E-06  0.315201104544E-06  0.336033502597E-06
  0.358242763940E-06  0.381919888788E-06  0.407161891784E-06  0.434072199500E-06  0.462761074222E-06
  0.493346065742E-06  0.525952493001E-06  0.560713957573E-06  0.597772891089E-06  0.637281138831E-06
  0.679400581910E-06  0.724303800553E-06  0.772174781237E-06  0.823209670559E-06  0.877617578924E-06
  0.935621437359E-06  0.997458910953E-06  0.106338337267E-05  0.113366494151E-05  0.120859158931E-05
  0.128847032070E-05  0.137362843098E-05  0.146441484724E-05  0.156120155802E-05  0.166438513751E-05
  0.177438837050E-05  0.189166198469E-05  0.201668649752E-05  0.214997418502E-05  0.229207118089E-05
  0.244355971418E-05  0.260506049495E-05  0.277723525761E-05  0.296078947231E-05  0.315647523554E-05
  0.336509435185E-05  0.358750161914E-05  0.382460833118E-05  0.407738601158E-05  0.434687039455E-05
  0.463416566877E-05  0.494044900177E-05  0.526697536332E-05  0.561508266759E-05  0.598619725526E-05
  0.638183973788E-05  0.680363122855E-05  0.725329998441E-05  0.773268848812E-05  0.824376099745E-05
  0.878861159384E-05  0.936947276285E-05  0.998872454187E-05  0.106489042723E-04  0.113527169966E-04
  0.121030465418E-04  0.129029673367E-04  0.137557570091E-04  0.146649098166E-04  0.156341509638E-04
  0.166674518674E-04  0.177690464291E-04  0.189434483847E-04  0.201954697996E-04  0.215302407870E-04
  0.229532305293E-04  0.244702696892E-04  0.260875743019E-04  0.278117712466E-04  0.296499254019E-04
  0.316095685961E-04  0.336987304704E-04  0.359259713836E-04  0.383004174909E-04  0.408317981412E-04
  0.435304857476E-04  0.464075382928E-04  0.494747446437E-04  0.527446728633E-04  0.562307217142E-04
  0.599471755686E-04  0.639092629472E-04  0.681332189289E-04  0.726363516854E-04  0.774371134155E-04
  0.825551759685E-04  0.880115114678E-04  0.938284782642E-04  0.100029912573E-03  0.106641226171E-03
  0.113689510549E-03  0.121203647956E-03  0.129214429785E-03  0.137754682786E-03  0.146859403624E-03
  0.156565902340E-03  0.166913955293E-03  0.177945968227E-03  0.189707150109E-03  0.202245698481E-03
  0.215612997058E-03  0.229863826405E-03  0.245056588552E-03  0.261253546461E-03  0.278521079344E-03
  0.296929954870E-03  0.316555619387E-03  0.337478507347E-03  0.359784371207E-03  0.383564633173E-03
  0.408916760216E-03  0.435944663925E-03  0.464759126822E-03  0.495478256912E-03  0.528227972332E-03
  0.563142518096E-03  0.600365017073E-03  0.640048057462E-03  0.682354319191E-03  0.727457241835E-03
  0.775541736793E-03  0.826804946685E-03  0.881457055096E-03  0.939722150024E-03  0.100183914460E-02
  0.106806275891E-02  0.113866456696E-02  0.121393411311E-02  0.129418010276E-02  0.137973167196E-02
  0.147093974148E-02  0.156817846086E-02  0.167184674845E-02  0.178236993386E-02  0.190020150979E-02
  0.202582500032E-02  0.215975595375E-02  0.230254406815E-02  0.245477545858E-02  0.261707507557E-02
  0.279010928489E-02  0.297458861967E-02  0.317127071629E-02  0.338096344654E-02  0.360452825933E-02
  0.384288374605E-02  0.409700944480E-02  0.436794989957E-02  0.465681899186E-02  0.496480456303E-02
  0.529317334736E-02  0.564327623693E-02  0.601655390088E-02  0.641454278340E-02  0.683888150630E-02
  0.729131770387E-02  0.777371531973E-02  0.828806239743E-02  0.883647939860E-02  0.942122808528E-02
  0.100447210050E-01  0.107095316205E-01  0.114184051282E-01  0.121742700136E-01  0.129802503941E-01
  0.138396792033E-01  0.147561122763E-01  0.157333433961E-01  0.167754203700E-01  0.178866622037E-01
  0.190716774518E-01  0.203353838224E-01  0.216830291230E-01  0.231202136379E-01  0.246529140335E-01
  0.262875088939E-01  0.280308059938E-01  0.298900714231E-01  0.318730606825E-01  0.339880518732E-01
  0.362438811136E-01  0.386499803140E-01  0.412164174500E-01  0.439539394755E-01  0.468740180159E-01
  0.499888979853E-01  0.533116492656E-01  0.568562215790E-01  0.606375026779E-01  0.646713799582E-01
  0.689748055822E-01  0.735658651682E-01  0.784638500660E-01  0.836893331871E-01  0.892642482976E-01
  0.952119725997E-01  0.101557412330E+00  0.108327090981E+00  0.115549239599E+00  0.123253888428E+00
  0.131472958955E+00  0.140240355130E+00  0.149592052226E+00  0.159566181415E+00  0.170203107695E+00
  0.181545498262E+00  0.193638377811E+00  0.206529166514E+00  0.220267695625E+00  0.234906194670E+00
  0.250499243140E+00  0.267103678359E+00  0.284778449872E+00  0.303584409192E+00  0.323584022152E+00
  0.344840989370E+00  0.367419758570E+00  0.391384910668E+00  0.416800399806E+00  0.443728625876E+00
  0.472229316784E+00  0.502358196792E+00  0.534165417106E+00  0.567693725573E+00  0.602976354312E+00
  0.640034607705E+00  0.678875138762E+00  0.719486910021E+00  0.761837846226E+00  0.805871200596E+00
  0.851501674959E+00  0.898611356636E+00  0.947045561839E+00  0.996608706261E+00  0.104706035764E+01
  0.109811166107E+01  0.114942236350E+01  0.120059869548E+01  0.125119239199E+01  0.130070114324E+01
  0.134857075398E+01  0.139424135292E+01  0.143748892538E+01  0.147828228040E+01  0.151660450374E+01
  0.000000000000E+00  0.000000000000E+00  0.000000000000E+00  0.000000000000E+00  0.000000000000E+00
  0.000000000000E+00  0.000000000000E+00  0.000000000000E+00  0.000000000000E+00  0.000000000000E+00
  0.000000000000E+00  0.000000000000E+00  0.000000000000E+00  0.000000000000E+00  0.000000000000E+00
  0.000000000000E+00  0.000000000000E+00  0.000000000000E+00  0.000000000000E+00  0.000000000000E+00
  0.000000000000E+00  0.000000000000E+00  0.000000000000E+00  0.000000000000E+00  0.000000000000E+00
 ae wavefunction
 -0.826665908338E-05 -0.874382824400E-05 -0.924725834846E-05 -0.977847191451E-05 -0.103390766598E-04
 -0.109307705142E-04 -0.115553469209E-04 -0.122147004429E-04 -0.129108326943E-04 -0.136458586153E-04
 -0.144220131130E-04 -0.152416580886E-04 -0.161072898752E-04 -0.170215471117E-04 -0.179872190784E-04
 -0.190072545223E-04 -0.200847710027E-04 -0.212230647873E-04 -0.224256213341E-04 -0.236961263921E-04
 -0.250384777614E-04 -0.264567977500E-04 -0.279554463704E-04 -0.295390353222E-04 -0.312124428064E-04
 -0.329808292221E-04 -0.348496538010E-04 -0.368246922337E-04 -0.389120553492E-04 -0.411182089114E-04
 -0.434499946019E-04 -0.459146522534E-04 -0.485198434219E-04 -0.512736763659E-04 -0.541847325265E-04
 -0.572620945924E-04 -0.605153762526E-04 -0.639547537315E-04 -0.675909992186E-04 -0.714355163045E-04
 -0.755003775462E-04 -0.797983642870E-04 -0.843430088688E-04 -0.891486393794E-04 -0.942304270877E-04
 -0.996044367256E-04 -0.105287679790E-03 -0.111298171044E-03 -0.117654988405E-03 -0.124378336427E-03
 -0.131489613584E-03 -0.139011483592E-03 -0.146967950983E-03 -0.155384441218E-03 -0.164287885569E-03
 -0.173706811082E-03 -0.183671435890E-03 -0.194213770208E-03 -0.205367723337E-03 -0.217169217008E-03
 -0.229656305457E-03 -0.242869302602E-03 -0.256850916726E-03 -0.271646393104E-03 -0.287303665017E-03
 -0.303873513633E-03 -0.321409737237E-03 -0.339969330355E-03 -0.359612673299E-03 -0.380403732720E-03
 -0.402410273775E-03 -0.425704084524E-03 -0.450361213241E-03 -0.476462219312E-03 -0.504092438449E-03
 -0.533342262991E-03 -0.564307438053E-03 -0.597089374371E-03 -0.631795478685E-03 -0.668539502560E-03
 -0.707441910559E-03 -0.748630268749E-03 -0.792239654518E-03 -0.838413088745E-03 -0.887301991386E-03
 -0.939066661583E-03 -0.993876783417E-03 -0.105191195848E-02 -0.111336226648E-02 -0.117842885503E-02
 -0.124732455999E-02 -0.132027455754E-02 -0.139751704929E-02 -0.147930398176E-02 -0.156590180155E-02
 -0.165759224748E-02 -0.175467318106E-02 -0.185745945660E-02 -0.196628383217E-02 -0.208149792280E-02
 -0.220347319707E-02 -0.233260201818E-02 -0.246929873081E-02 -0.261400079458E-02 -0.276716996513E-02
 -0.292929352364E-02 -0.310088555538E-02 -0.328248827786E-02 -0.347467341879E-02 -0.367804364405E-02
 -0.389323403536E-02 -0.412091361729E-02 -0.436178693275E-02 -0.461659566585E-02 -0.488612031045E-02
 -0.517118188245E-02 -0.547264367315E-02 -0.579141304049E-02 -0.612844323450E-02 -0.648473525214E-02
 -0.686133971647E-02 -0.725935877361E-02 -0.767994800062E-02 -0.812431831563E-02 -0.859373788118E-02
 -0.908953398965E-02 -0.961309491898E-02 -0.101658717448E-01 -0.107493800939E-01 -0.113652018217E-01
 -0.120149865948E-01 -0.127004533578E-01 -0.134233916609E-01 -0.141856628216E-01 -0.149892008942E-01
 -0.158360134143E-01 -0.167281818846E-01 -0.176678619654E-01 -0.186572833292E-01 -0.196987491350E-01
 -0.207946350754E-01 -0.219473879446E-01 -0.231595236716E-01 -0.244336247600E-01 -0.257723370690E-01
 -0.271783658684E-01 -0.286544710940E-01 -0.302034617256E-01 -0.318281892053E-01 -0.335315398103E-01
 -0.353164258859E-01 -0.371857758454E-01 -0.391425228342E-01 -0.411895919542E-01 -0.433298859401E-01
 -0.455662691752E-01 -0.479015499325E-01 -0.503384607237E-01 -0.528796366381E-01 -0.555275915529E-01
 -0.582846920971E-01 -0.611531292525E-01 -0.641348874805E-01 -0.672317112671E-01 -0.704450689868E-01
 -0.737761139952E-01 -0.772256428729E-01 -0.807940507562E-01 -0.844812837111E-01 -0.882867881253E-01
 -0.922094571211E-01 -0.962475740177E-01 -0.100398752910E+00 -0.104659876468E+00 -0.109027031094E+00
 -0.113495439658E+00 -0.118059392033E+00 -0.122712173769E+00 -0.127445993285E+00 -0.132251908013E+00
 -0.137119750058E+00 -0.142038051964E+00 -0.146993973277E+00 -0.151973228697E+00 -0.156960018624E+00
 -0.161936963025E+00 -0.166885039564E+00 -0.171783527013E+00 -0.176609955017E+00 -0.181340061435E+00
 -0.185947758583E+00 -0.190405110022E+00 -0.194682319762E+00 -0.198747736148E+00 -0.202567872920E+00
 -0.206107450216E+00 -0.209329458299E+00 -0.212195246799E+00 -0.214664642022E+00 -0.216696094661E+00
 -0.218246859878E+00 -0.219273211421E+00 -0.219730691119E+00 -0.219574394923E+00 -0.218759296480E+00
 -0.217240609097E+00 -0.214974186695E+00 -0.211916964036E+00 -0.208027436063E+00 -0.203266175660E+00
 -0.197596388535E+00 -0.190984503262E+00 -0.183400793736E+00 -0.174820030491E+00 -0.165222156375E+00
 -0.154592981112E+00 -0.142924888199E+00 -0.130217546492E+00 -0.116478617696E+00 -0.101724449816E+00
 -0.859807455543E-01 -0.692831935355E-01 -0.516780493274E-01 -0.332226523784E-01 -0.139858643300E-01
  0.595158631248E-02  0.264968683923E-01  0.475449362984E-01  0.689785565280E-01  0.906684853500E-01
  0.112473807396E+00  0.134242440759E+00  0.155811809333E+00  0.177009679608E+00  0.197655159713E+00
  0.217559865443E+00  0.236529270847E+00  0.254364274141E+00  0.270863011988E+00  0.285822934901E+00
  0.299043116945E+00  0.310326738903E+00  0.319483680056E+00  0.326333174700E+00  0.330706509867E+00
  0.332449744567E+00  0.331426421490E+00  0.327520230638E+00  0.320637578116E+00  0.310710013569E+00
  0.297696473789E+00  0.281585304606E+00  0.262396026287E+00  0.240180808979E+00  0.215025624399E+00
  0.187051038919E+00  0.156412611966E+00  0.123300863248E+00  0.879407734751E-01  0.505907871652E-01
  0.115412934040E-01 -0.288874285522E-01 -0.703477986483E-01 -0.112468047948E+00 -0.154855834756E+00
 -0.197102351117E+00 -0.238786915159E+00 -0.279482029836E+00 -0.318758786591E+00 -0.356192239686E+00
 -0.391366039857E+00 -0.423875568965E+00 -0.453329625010E+00 -0.479352322217E+00 -0.501587712439E+00
 -0.519707734241E+00 -0.533420899477E+00 -0.542478777608E+00 -0.546679754120E+00 -0.545871113555E+00
 -0.539950325037E+00 -0.528865777639E+00 -0.512616857957E+00 -0.491253186548E+00 -0.464872900539E+00
 -0.433619985650E+00 -0.397680760854E+00 -0.357279678795E+00 -0.312674627088E+00 -0.264151914075E+00
 -0.212021106269E+00 -0.156609865764E+00 -0.982589129131E-01 -0.373172176490E-01  0.258624972062E-01
  0.909278788576E-01  0.157530648194E+00  0.225329856192E+00  0.293994678945E+00  0.363206749433E+00
  0.432662036024E+00  0.502072285897E+00  0.571166061206E+00  0.639689401709E+00  0.707406154216E+00
  0.774098013094E+00  0.839564319930E+00  0.903621670933E+00  0.966103383016E+00  0.102685886553E+01
  0.108575294584E+01  0.114266519076E+01  0.119748926381E+01  0.125013235235E+01  0.130051469320E+01
  0.134856922092E+01  0.139424135292E+01  0.143748892538E+01  0.147828228040E+01  0.151660450374E+01
  0.000000000000E+00  0.000000000000E+00  0.000000000000E+00  0.000000000000E+00  0.000000000000E+00
  0.000000000000E+00  0.000000000000E+00  0.000000000000E+00  0.000000000000E+00  0.000000000000E+00
  0.000000000000E+00  0.000000000000E+00  0.000000000000E+00  0.000000000000E+00  0.000000000000E+00
  0.000000000000E+00  0.000000000000E+00  0.000000000000E+00  0.000000000000E+00  0.000000000000E+00
  0.000000000000E+00  0.000000000000E+00  0.000000000000E+00  0.000000000000E+00  0.000000000000E+00
 pseudo wavefunction
  0.790211738993E-08  0.842438728319E-08  0.898117524646E-08  0.957476266176E-08  0.102075816932E-07
  0.108822252523E-07  0.116014576224E-07  0.123682257851E-07  0.131856714948E-07  0.140571441523E-07
  0.149862145280E-07  0.159766893933E-07  0.170326271182E-07  0.181583543001E-07  0.193584834916E-07
  0.206379321000E-07  0.220019425357E-07  0.234561036927E-07  0.250063738484E-07  0.266591050770E-07
  0.284210692766E-07  0.302994859162E-07  0.323020516167E-07  0.344369716875E-07  0.367129937460E-07
  0.391394435613E-07  0.417262632643E-07  0.444840520855E-07  0.474241097839E-07  0.505584829467E-07
  0.539000143487E-07  0.574623955748E-07  0.612602231194E-07  0.653090581940E-07  0.696254904882E-07
  0.742272061437E-07  0.791330602217E-07  0.843631539597E-07  0.899389171341E-07  0.958831958664E-07
  0.102220346233E-06  0.108976334062E-06  0.116178841325E-06  0.123857379562E-06  0.132043410800E-06
  0.140770476467E-06  0.150074334826E-06  0.159993107488E-06  0.170567435611E-06  0.181840646426E-06
  0.193858930764E-06  0.206671532319E-06  0.220330949419E-06  0.234893150129E-06  0.250417801579E-06
  0.266968514444E-06  0.284613103578E-06  0.303423865881E-06  0.323477876528E-06  0.344857304776E-06
  0.367649750646E-06  0.391948603850E-06  0.417853426452E-06  0.445470360806E-06  0.474912564472E-06
  0.506300673859E-06  0.539763298523E-06  0.575437548134E-06  0.613469594264E-06  0.654015269311E-06
  0.697240705008E-06  0.743323013126E-06  0.792451011175E-06  0.844825996059E-06  0.900662568873E-06
  0.960189514203E-06  0.102365073755E-05  0.109130626471E-05  0.116343330718E-05  0.124032739804E-05
  0.132230360283E-05  0.140969781052E-05  0.150286810976E-05  0.160219625613E-05  0.170808923630E-05
  0.182098093569E-05  0.194133391616E-05  0.206964131140E-05  0.220642884743E-05  0.235225699672E-05
  0.250772327466E-05  0.267346468782E-05  0.285016034396E-05  0.303853423468E-05  0.323935820178E-05
  0.345345509989E-05  0.368170216792E-05  0.392503462352E-05  0.418444949494E-05  0.446100970628E-05
  0.475584843266E-05  0.507017374323E-05  0.540527355112E-05  0.576252089043E-05  0.614337954210E-05
  0.654941003149E-05  0.698227602244E-05  0.744375113387E-05  0.793572620692E-05  0.846021705237E-05
  0.901937271012E-05  0.961548425450E-05  0.102509941816E-04  0.109285064170E-04  0.116507969847E-04
  0.124208253818E-04  0.132417467040E-04  0.141169245734E-04  0.150499449199E-04  0.160446306743E-04
  0.171050574314E-04  0.182355701494E-04  0.194408009518E-04  0.207256881072E-04  0.220954962618E-04
  0.235558380108E-04  0.251126968937E-04  0.267724519112E-04  0.285419036603E-04  0.304283021985E-04
  0.324393767485E-04  0.345833673660E-04  0.368690587008E-04  0.393058159887E-04  0.419036234220E-04
  0.446731250560E-04  0.476256684190E-04  0.507733510034E-04  0.541290698300E-04  0.577065742879E-04
  0.615205224654E-04  0.655865412037E-04  0.699212901202E-04  0.745425298608E-04  0.794691948639E-04
  0.847214709318E-04  0.903208779289E-04  0.962903579432E-04  0.102654369275E-03  0.109438986635E-03
  0.116672007962E-03  0.124383068303E-03  0.132603761214E-03  0.141367768179E-03  0.150710996591E-03
  0.160671726835E-03  0.171290769104E-03  0.182611630559E-03  0.194680693548E-03  0.207547405588E-03
  0.221264481902E-03  0.235888121336E-03  0.251478236537E-03  0.268098699339E-03  0.285817602351E-03
  0.304707537833E-03  0.324845894977E-03  0.346315176841E-03  0.369203338192E-03  0.393604145679E-03
  0.419617561779E-03  0.447350154094E-03  0.476915531684E-03  0.508434810193E-03  0.542037107692E-03
  0.577860073252E-03  0.616050450403E-03  0.656764677784E-03  0.700169529438E-03  0.746442797351E-03
  0.795774019036E-03  0.848365253110E-03  0.904431906040E-03  0.964203613419E-03  0.102792517936E-02
  0.109585757783E-02  0.116827902003E-02  0.124548609207E-02  0.132779496770E-02  0.141554270093E-02
  0.150908860375E-02  0.160881571471E-02  0.171513236409E-02  0.182847384223E-02  0.194930417755E-02
  0.207811803162E-02  0.221544271894E-02  0.236184035942E-02  0.251791017246E-02  0.268429092168E-02
  0.286166352034E-02  0.305075380771E-02  0.325233550769E-02  0.346723338155E-02  0.369632658722E-02
  0.394055225886E-02  0.420090932066E-02  0.447846255029E-02  0.477434690808E-02  0.508977214903E-02
  0.542602773594E-02  0.578448807304E-02  0.616661808069E-02  0.657397913297E-02  0.700823538142E-02
  0.747116048952E-02  0.796464480400E-02  0.849070299068E-02  0.905148216425E-02  0.964927054293E-02
  0.102865066610E-01  0.109657891743E-01  0.116898872945E-01  0.124617518926E-01  0.132845273115E-01
  0.141615639308E-01  0.150964315308E-01  0.160929335022E-01  0.171551219523E-01  0.182873137614E-01
  0.194941076437E-01  0.207804022715E-01  0.221514155217E-01  0.236127049101E-01  0.251701892750E-01
  0.268301717812E-01  0.285993643113E-01  0.304849133157E-01  0.324944271953E-01  0.346360052881E-01
  0.369182685354E-01  0.393503918982E-01  0.419421385987E-01  0.447038962530E-01  0.476467149618E-01
  0.507823474176E-01  0.541232910813E-01  0.576828324660E-01  0.614750935591E-01  0.655150803897E-01
  0.698187337314E-01  0.744029819004E-01  0.792857955766E-01  0.844862445348E-01  0.900245561203E-01
  0.959221752447E-01  0.102201825603E+00  0.108887571725E+00  0.116004881357E+00  0.123580687573E+00
  0.131643449810E+00  0.140223212894E+00  0.149351662872E+00  0.159062178230E+00  0.169389874755E+00
  0.180371641968E+00  0.192046168620E+00  0.204453954259E+00  0.217637303306E+00  0.231640297411E+00
  0.246508741087E+00  0.262290074727E+00  0.279033248076E+00  0.296788546053E+00  0.315607357463E+00
  0.335541875613E+00  0.356644718113E+00  0.378968451216E+00  0.402565001896E+00  0.427484938501E+00
  0.453776598279E+00  0.481485037300E+00  0.510650775465E+00  0.541308306329E+00  0.573484338613E+00
  0.607195733516E+00  0.642447099681E+00  0.679228005954E+00  0.717509771426E+00  0.757241793036E+00
  0.798347373803E+00  0.840719020275E+00  0.884213186896E+00  0.928644458686E+00  0.973779183144E+00
  0.101932858904E+01  0.106494146516E+01  0.111019651815E+01  0.115459458623E+01  0.119755095802E+01
  0.123838813200E+01  0.127632945579E+01  0.131049420335E+01  0.133989478231E+01  0.136343690971E+01
  0.137992374578E+01  0.138806512465E+01  0.138649315250E+01  0.137378554108E+01  0.134849808115E+01
  0.130920760679E+01  0.125456661855E+01  0.118337037835E+01  0.109463671590E+01  0.987697948124E+00
  0.862303173010E+00  0.718750457148E+00  0.558130200010E+00  0.382198867908E+00  0.193305544854E+00
  0.000000000000E+00  0.000000000000E+00  0.000000000000E+00  0.000000000000E+00  0.000000000000E+00
  0.000000000000E+00  0.000000000000E+00  0.000000000000E+00  0.000000000000E+00  0.000000000000E+00
  0.000000000000E+00  0.000000000000E+00  0.000000000000E+00  0.000000000000E+00  0.000000000000E+00
  0.000000000000E+00  0.000000000000E+00  0.000000000000E+00  0.000000000000E+00  0.000000000000E+00
  0.000000000000E+00  0.000000000000E+00  0.000000000000E+00  0.000000000000E+00  0.000000000000E+00
 ae wavefunction
 -0.129567049833E-04 -0.137045942606E-04 -0.144936435082E-04 -0.153262390394E-04 -0.162049007052E-04
 -0.171322897506E-04 -0.181112171228E-04 -0.191446522591E-04 -0.202357323826E-04 -0.213877723383E-04
 -0.226042750004E-04 -0.238889422869E-04 -0.252456868177E-04 -0.266786442549E-04 -0.281921863680E-04
 -0.297909348663E-04 -0.314797760463E-04 -0.332638763029E-04 -0.351486985576E-04 -0.371400196578E-04
 -0.392439488084E-04 -0.414669470959E-04 -0.438158481728E-04 -0.462978801725E-04 -0.489206889282E-04
 -0.516923625763E-04 -0.546214576272E-04 -0.577170265924E-04 -0.609886472617E-04 -0.644464537313E-04
 -0.681011692905E-04 -0.719641412705E-04 -0.760473779888E-04 -0.803635879007E-04 -0.849262211034E-04
 -0.897495133228E-04 -0.948485325469E-04 -0.100239228452E-03 -0.105938484797E-03 -0.111964174969E-03
 -0.118335220853E-03 -0.125071655252E-03 -0.132194688041E-03 -0.139726776308E-03 -0.147691698695E-03
 -0.156114634211E-03 -0.165022245776E-03 -0.174442768771E-03 -0.184406104911E-03 -0.194943921739E-03
 -0.206089758087E-03 -0.217879135850E-03 -0.230349678455E-03 -0.243541236407E-03 -0.257496020342E-03
 -0.272258742019E-03 -0.287876763715E-03 -0.304400256519E-03 -0.321882368035E-03 -0.340379400041E-03
 -0.359950996680E-03 -0.380660343791E-03 -0.402574380003E-03 -0.425764020279E-03 -0.450304392609E-03
 -0.476275088587E-03 -0.503760428662E-03 -0.532849742877E-03 -0.563637667951E-03 -0.596224461613E-03
 -0.630716335136E-03 -0.667225805039E-03 -0.705872065030E-03 -0.746781379249E-03 -0.790087497939E-03
 -0.835932096767E-03 -0.884465240986E-03 -0.935845875765E-03 -0.990242343996E-03 -0.104783293301E-02
 -0.110880645161E-02 -0.117336283899E-02 -0.124171380706E-02 -0.131408351772E-02 -0.139070929699E-02
 -0.147184238741E-02 -0.155774874074E-02 -0.164870985265E-02 -0.174502364132E-02 -0.184700537186E-02
 -0.195498862850E-02 -0.206932633659E-02 -0.219039183635E-02 -0.231858001048E-02 -0.245430846772E-02
 -0.259801878429E-02 -0.275017780549E-02 -0.291127900930E-02 -0.308184393414E-02 -0.326242367267E-02
 -0.345360043368E-02 -0.365598917370E-02 -0.387023930023E-02 -0.409703644810E-02 -0.433710433047E-02
 -0.459120666560E-02 -0.486014918056E-02 -0.514478169253E-02 -0.544600026830E-02 -0.576474946193E-02
 -0.610202463035E-02 -0.645887432630E-02 -0.683640276707E-02 -0.723577237752E-02 -0.765820640461E-02
 -0.810499160037E-02 -0.857748096922E-02 -0.907709657456E-02 -0.960533239874E-02 -0.101637572492E-01
 -0.107540177023E-01 -0.113778410754E-01 -0.120370384151E-01 -0.127335074895E-01 -0.134692357694E-01
 -0.142463033811E-01 -0.150668860125E-01 -0.159332577502E-01 -0.168477938252E-01 -0.178129732381E-01
 -0.188313812358E-01 -0.199057116062E-01 -0.210387687538E-01 -0.222334695158E-01 -0.234928446751E-01
 -0.248200401202E-01 -0.262183175997E-01 -0.276910550127E-01 -0.292417461712E-01 -0.308739999661E-01
 -0.325915388623E-01 -0.343981966417E-01 -0.362979153064E-01 -0.382947410504E-01 -0.403928191976E-01
 -0.425963879988E-01 -0.449097711744E-01 -0.473373690795E-01 -0.498836483626E-01 -0.525531299818E-01
 -0.553503754331E-01 -0.582799710417E-01 -0.613465101567E-01 -0.645545730849E-01 -0.679087045946E-01
 -0.714133888119E-01 -0.750730213303E-01 -0.788918783497E-01 -0.828740826593E-01 -0.870235662775E-01
 -0.913440295641E-01 -0.958388966228E-01 -0.100511266817E+00 -0.105363862230E+00 -0.110398970919E+00
 -0.115618385809E+00 -0.121023339119E+00 -0.126614432205E+00 -0.132391560768E+00 -0.138353835367E+00
 -0.144499497257E+00 -0.150825829590E+00 -0.157329064087E+00 -0.164004283336E+00 -0.170845318949E+00
 -0.177844645895E+00 -0.184993273394E+00 -0.192280632874E+00 -0.199694463593E+00 -0.207220696628E+00
 -0.214843338089E+00 -0.222544352498E+00 -0.230303547436E+00 -0.238098460666E+00 -0.245904251038E+00
 -0.253693594610E+00 -0.261436587480E+00 -0.269100656922E+00 -0.276650482545E+00 -0.284047929353E+00
 -0.291251994860E+00 -0.298218772791E+00 -0.304901436367E+00 -0.311250244702E+00 -0.317212576283E+00
 -0.322732993852E+00 -0.327753345113E+00 -0.332212903628E+00 -0.336048553973E+00 -0.339195024797E+00
 -0.341585172957E+00 -0.343150321320E+00 -0.343820652426E+00 -0.343525659841E+00 -0.342194658823E+00
 -0.339757357663E+00 -0.336144490698E+00 -0.331288513472E+00 -0.325124359847E+00 -0.317590259990E+00
 -0.308628617266E+00 -0.298186940946E+00 -0.286218830485E+00 -0.272685005755E+00 -0.257554376225E+00
 -0.240805140421E+00 -0.222425905410E+00 -0.202416814215E+00 -0.180790667305E+00 -0.157574022474E+00
 -0.132808255641E+00 -0.106550563421E+00 -0.788748867823E-01 -0.498727337619E-01 -0.196538781078E-01
  0.116530900578E-01  0.439003858808E-01  0.769208478764E-01  0.110527975554E+00  0.144516207108E+00
  0.178661453172E+00  0.212721896063E+00  0.246439056357E+00  0.279539123281E+00  0.311734546402E+00
  0.342725897189E+00  0.372204029204E+00  0.399852586351E+00  0.425350911898E+00  0.448377378814E+00
  0.468613099630E+00  0.485745920669E+00  0.499474599437E+00  0.509513096937E+00  0.515594948380E+00
  0.517477681468E+00  0.514947236320E+00  0.507822322855E+00  0.495958641365E+00  0.479252892081E+00
  0.457646505441E+00  0.431129031374E+00  0.399741130168E+00  0.363577108799E+00  0.322786945271E+00
  0.277577741134E+00  0.228214539658E+00  0.175020445804E+00  0.118375985508E+00  0.587176475023E-01
 -0.346443780470E-02 -0.676297107356E-01 -0.133191293627E+00 -0.199520989754E+00 -0.265955149988E+00
 -0.331801394820E+00 -0.396346193127E+00 -0.458863271363E+00 -0.518622658173E+00 -0.574899763494E+00
 -0.626983367077E+00 -0.674181353820E+00 -0.715824358700E+00 -0.751270031342E+00 -0.779911847032E+00
 -0.801193261142E+00 -0.814622992834E+00 -0.819786834998E+00 -0.816355263849E+00 -0.804088541378E+00
 -0.782840669448E+00 -0.752562547362E+00 -0.713304140045E+00 -0.665215364730E+00 -0.608545529937E+00
 -0.543641348518E+00 -0.470943701416E+00 -0.390983415897E+00 -0.304376347930E+00 -0.211818046309E+00
 -0.114078241018E+00 -0.119953568556E-01  0.935287947343E-01  0.201534041599E+00  0.311006539945E+00
  0.420883122726E+00  0.530055354472E+00  0.637373389015E+00  0.741649779038E+00  0.841663435121E+00
  0.936163986550E+00  0.102387684346E+01  0.110350931487E+01  0.117375818246E+01  0.123331917669E+01
  0.128089883808E+01  0.131522927527E+01  0.133508634140E+01  0.133931174719E+01  0.132683959131E+01
  0.129672772814E+01  0.124819428278E+01  0.118065946973E+01  0.109379265506E+01  0.987564316585E+00
  0.862302193162E+00  0.718750457148E+00  0.558130200010E+00  0.382198867908E+00  0.193305544854E+00
  0.000000000000E+00  0.000000000000E+00  0.000000000000E+00  0.000000000000E+00  0.000000000000E+00
  0.000000000000E+00  0.000000000000E+00  0.000000000000E+00  0.000000000000E+00  0.000000000000E+00
  0.000000000000E+00  0.000000000000E+00  0.000000000000E+00  0.000000000000E+00  0.000000000000E+00
  0.000000000000E+00  0.000000000000E+00  0.000000000000E+00  0.000000000000E+00  0.000000000000E+00
  0.000000000000E+00  0.000000000000E+00  0.000000000000E+00  0.000000000000E+00  0.000000000000E+00
 End of Dataset
  PAW_PBE Se 06Sep2000                   
   6.00000000000000     
 parameters from PSCTR are:
   VRHFIN =Se: s2p4
   LEXCH  = PE
   EATOM  =   257.1286 eV,   18.8984 Ry

   TITEL  = PAW_PBE Se 06Sep2000
   LULTRA =        F    use ultrasoft PP ?
   IUNSCR =        1    unscreen: 0-lin 1-nonlin 2-no
   RPACOR =    1.900    partial core radius
   POMASS =   78.960; ZVAL   =    6.000    mass and valenz
   RCORE  =    2.100    outmost cutoff radius
   RWIGS  =    2.200; RWIGS  =    1.164    wigner-seitz radius (au A)
   ENMAX  =  211.555; ENMIN  =  158.666 eV
   ICORE  =        3    local potential
   LCOR   =        T    correct aug charges
   LPAW   =        T    paw PP
   EAUG   =  446.842
   DEXC   =    0.000
   RMAX   =    2.147    core radius for proj-oper
   RAUG   =    1.300    factor for augmentation sphere
   RDEP   =    2.177    radius for radial grids
   RDEPT  =    1.928    core radius for aug-charge
 
   Atomic configuration
   10 entries
     n  l   j            E        occ.
     1  0  0.50    -12503.4787   2.0000
     2  0  0.50     -1606.9547   2.0000
     2  1  1.50     -1413.3140   6.0000
     3  0  0.50      -213.4885   2.0000
     3  1  1.50      -152.9538   6.0000
     3  2  2.50       -53.1221  10.0000
     4  0  0.50       -17.2865   2.0000
     4  1  0.50        -6.5110   4.0000
     4  2  2.50        -6.8029   0.0000
     4  3  2.50        -6.8029   0.0000
   Description
     l       E           TYP  RCUT    TYP  RCUT
     0    -17.2865377     23  2.100
     0    -15.3094411     23  2.100
     1     -6.5110275     23  2.100
     1     -0.0695192     23  2.100
     2     -6.8029130     23  2.100
     3     -1.3605826      7  2.100
   Error from kinetic energy argument (eV)
   NDATA  =      100
   STEP   =   20.000   1.050
  55.0      51.6      49.9      46.6      44.9      41.8      38.8      37.3
  34.5      31.8      30.5      28.1      25.8      23.6      21.6      19.7
  17.9      16.3      14.8      12.8      11.5      10.4      8.93      8.03
  7.22      6.14      5.21      4.66      3.93      3.31      2.78      2.33
  1.95      1.63      1.35      1.12     0.868     0.714     0.548     0.447
 0.339     0.255     0.190     0.140     0.102     0.739E-01 0.528E-01 0.343E-01
 0.240E-01 0.154E-01 0.101E-01 0.752E-02 0.562E-02 0.467E-02 0.420E-02 0.406E-02
 0.396E-02 0.378E-02 0.349E-02 0.309E-02 0.263E-02 0.217E-02 0.174E-02 0.133E-02
 0.108E-02 0.887E-03 0.783E-03 0.733E-03 0.700E-03 0.665E-03 0.605E-03 0.525E-03
 0.438E-03 0.358E-03 0.291E-03 0.255E-03 0.233E-03 0.221E-03 0.206E-03 0.186E-03
 0.157E-03 0.130E-03 0.110E-03 0.968E-04 0.904E-04 0.845E-04 0.758E-04 0.640E-04
 0.533E-04 0.464E-04 0.427E-04 0.400E-04 0.353E-04 0.300E-04 0.253E-04 0.228E-04
 0.212E-04 0.191E-04 0.161E-04 0.138E-04
END of PSCTR-controll parameters
 local part
   88.8171214632094     
  0.58119705E+02  0.58113162E+02  0.58106765E+02  0.58096097E+02  0.58081142E+02
  0.58061880E+02  0.58038272E+02  0.58010267E+02  0.57977791E+02  0.57940750E+02
  0.57899024E+02  0.57852470E+02  0.57800922E+02  0.57744189E+02  0.57682064E+02
  0.57614320E+02  0.57540718E+02  0.57461007E+02  0.57374922E+02  0.57282194E+02
  0.57182543E+02  0.57075679E+02  0.56961308E+02  0.56839123E+02  0.56708810E+02
  0.56570046E+02  0.56422501E+02  0.56265835E+02  0.56099705E+02  0.55923761E+02
  0.55737654E+02  0.55541030E+02  0.55333538E+02  0.55114830E+02  0.54884561E+02
  0.54642391E+02  0.54387988E+02  0.54121025E+02  0.53841188E+02  0.53548173E+02
  0.53241688E+02  0.52921457E+02  0.52587219E+02  0.52238734E+02  0.51875782E+02
  0.51498165E+02  0.51105711E+02  0.50698274E+02  0.50275735E+02  0.49838006E+02
  0.49385028E+02  0.48916775E+02  0.48433256E+02  0.47934512E+02  0.47420624E+02
  0.46891707E+02  0.46347916E+02  0.45789445E+02  0.45216530E+02  0.44629444E+02
  0.44028506E+02  0.43414072E+02  0.42786542E+02  0.42146356E+02  0.41493996E+02
  0.40829980E+02  0.40154871E+02  0.39469267E+02  0.38773804E+02  0.38069154E+02
  0.37356026E+02  0.36635159E+02  0.35907327E+02  0.35173332E+02  0.34434001E+02
  0.33690188E+02  0.32942771E+02  0.32192643E+02  0.31440717E+02  0.30687919E+02
  0.29935185E+02  0.29183461E+02  0.28433695E+02  0.27686839E+02  0.26943840E+02
  0.26205644E+02  0.25473186E+02  0.24747389E+02  0.24029161E+02  0.23319394E+02
  0.22618954E+02  0.21928685E+02  0.21249403E+02  0.20581892E+02  0.19926902E+02
  0.19285148E+02  0.18657305E+02  0.18044007E+02  0.17445844E+02  0.16863363E+02
  0.16297059E+02  0.15747382E+02  0.15214729E+02  0.14699447E+02  0.14201828E+02
  0.13722114E+02  0.13260491E+02  0.12817090E+02  0.12391992E+02  0.11985219E+02
  0.11596745E+02  0.11226488E+02  0.10874317E+02  0.10540050E+02  0.10223456E+02
  0.99242571E+01  0.96421302E+01  0.93767091E+01  0.91275864E+01  0.88943164E+01
  0.86764173E+01  0.84733742E+01  0.82846418E+01  0.81096471E+01  0.79477931E+01
  0.77984609E+01  0.76610139E+01  0.75347999E+01  0.74191551E+01  0.73134070E+01
  0.72168775E+01  0.71288862E+01  0.70487535E+01  0.69758037E+01  0.69093679E+01
  0.68487869E+01  0.67934143E+01  0.67426184E+01  0.66957853E+01  0.66523212E+01
  0.66116542E+01  0.65732366E+01  0.65365465E+01  0.65010899E+01  0.64664015E+01
  0.64320466E+01  0.63976220E+01  0.63627565E+01  0.63271122E+01  0.62903844E+01
  0.62523022E+01  0.62126284E+01  0.61711592E+01  0.61277242E+01  0.60821855E+01
  0.60344375E+01  0.59844052E+01  0.59320443E+01  0.58773390E+01  0.58203013E+01
  0.57609697E+01  0.56994071E+01  0.56356995E+01  0.55699542E+01  0.55022982E+01
  0.54328758E+01  0.53618470E+01  0.52893857E+01  0.52156772E+01  0.51409166E+01
  0.50653069E+01  0.49890568E+01  0.49123787E+01  0.48354873E+01  0.47585971E+01
  0.46819214E+01  0.46056697E+01  0.45300470E+01  0.44552516E+01  0.43814740E+01
  0.43088954E+01  0.42376867E+01  0.41680074E+01  0.41000045E+01  0.40338119E+01
  0.39695497E+01  0.39073233E+01  0.38472236E+01  0.37893260E+01  0.37336908E+01
  0.36803628E+01  0.36293716E+01  0.35807314E+01  0.35344417E+01  0.34904876E+01
  0.34488404E+01  0.34094577E+01  0.33722850E+01  0.33372555E+01  0.33042920E+01
  0.32733067E+01  0.32442031E+01  0.32168763E+01  0.31912146E+01  0.31671000E+01
  0.31444099E+01  0.31230174E+01  0.31027934E+01  0.30836066E+01  0.30653254E+01
  0.30478186E+01  0.30309565E+01  0.30146117E+01  0.29986601E+01  0.29829821E+01
  0.29674628E+01  0.29519932E+01  0.29364707E+01  0.29207995E+01  0.29048916E+01
  0.28886669E+01  0.28720537E+01  0.28549888E+01  0.28374183E+01  0.28192969E+01
  0.28005887E+01  0.27812668E+01  0.27613133E+01  0.27407192E+01  0.27194840E+01
  0.26976154E+01  0.26751293E+01  0.26520489E+01  0.26284046E+01  0.26042332E+01
  0.25795776E+01  0.25544862E+01  0.25290121E+01  0.25032127E+01  0.24771487E+01
  0.24508839E+01  0.24244842E+01  0.23980169E+01  0.23715503E+01  0.23451527E+01
  0.23188919E+01  0.22928348E+01  0.22670465E+01  0.22415899E+01  0.22165251E+01
  0.21919091E+01  0.21677949E+01  0.21442319E+01  0.21212647E+01  0.20989331E+01
  0.20772721E+01  0.20563114E+01  0.20360752E+01  0.20165823E+01  0.19978460E+01
  0.19798740E+01  0.19626684E+01  0.19462261E+01  0.19305387E+01  0.19155927E+01
  0.19013699E+01  0.18878472E+01  0.18749976E+01  0.18627899E+01  0.18511893E+01
  0.18401578E+01  0.18296546E+01  0.18196365E+01  0.18100582E+01  0.18008730E+01
  0.17920331E+01  0.17834898E+01  0.17751945E+01  0.17670987E+01  0.17591544E+01
  0.17513147E+01  0.17435341E+01  0.17357689E+01  0.17279773E+01  0.17201201E+01
  0.17121608E+01  0.17040656E+01  0.16958042E+01  0.16873495E+01  0.16786779E+01
  0.16697696E+01  0.16606083E+01  0.16511817E+01  0.16414811E+01  0.16315018E+01
  0.16212424E+01  0.16107055E+01  0.15998970E+01  0.15888263E+01  0.15775060E+01
  0.15659514E+01  0.15541810E+01  0.15422156E+01  0.15300783E+01  0.15177944E+01
  0.15053906E+01  0.14928954E+01  0.14803380E+01  0.14677487E+01  0.14551582E+01
  0.14425976E+01  0.14300975E+01  0.14176885E+01  0.14054003E+01  0.13932618E+01
  0.13813006E+01  0.13695431E+01  0.13580137E+01  0.13467353E+01  0.13357283E+01
  0.13250114E+01  0.13146006E+01  0.13045095E+01  0.12947493E+01  0.12853285E+01
  0.12762529E+01  0.12675259E+01  0.12591480E+01  0.12511172E+01  0.12434291E+01
  0.12360767E+01  0.12290507E+01  0.12223397E+01  0.12159299E+01  0.12098059E+01
  0.12039504E+01  0.11983444E+01  0.11929679E+01  0.11877995E+01  0.11828168E+01
  0.11779968E+01  0.11733160E+01  0.11687506E+01  0.11642767E+01  0.11598706E+01
  0.11555090E+01  0.11511690E+01  0.11468286E+01  0.11424668E+01  0.11380636E+01
  0.11336002E+01  0.11290595E+01  0.11244257E+01  0.11196849E+01  0.11148248E+01
  0.11098349E+01  0.11047068E+01  0.10994340E+01  0.10940117E+01  0.10884374E+01
  0.10827103E+01  0.10768316E+01  0.10708044E+01  0.10646335E+01  0.10583256E+01
  0.10518889E+01  0.10453329E+01  0.10386690E+01  0.10319094E+01  0.10250676E+01
  0.10181582E+01  0.10111962E+01  0.10041976E+01  0.99717872E+00  0.99015629E+00
  0.98314709E+00  0.97616794E+00  0.96923545E+00  0.96236595E+00  0.95557523E+00
  0.94887851E+00  0.94229020E+00  0.93582384E+00  0.92949195E+00  0.92330592E+00
  0.91727595E+00  0.91141093E+00  0.90571841E+00  0.90020453E+00  0.89487398E+00
  0.88973002E+00  0.88477440E+00  0.88000741E+00  0.87542791E+00  0.87103331E+00
  0.86681964E+00  0.86278162E+00  0.85891268E+00  0.85520509E+00  0.85165003E+00
  0.84823767E+00  0.84495731E+00  0.84179746E+00  0.83874599E+00  0.83579025E+00
  0.83291716E+00  0.83011338E+00  0.82736538E+00  0.82465964E+00  0.82198271E+00
  0.81932134E+00  0.81666265E+00  0.81399418E+00  0.81130404E+00  0.80858100E+00
  0.80581459E+00  0.80299518E+00  0.80011406E+00  0.79716351E+00  0.79413683E+00
  0.79102841E+00  0.78783375E+00  0.78454950E+00  0.78117343E+00  0.77770447E+00
  0.77414270E+00  0.77048931E+00  0.76674659E+00  0.76291789E+00  0.75900755E+00
  0.75502087E+00  0.75096403E+00  0.74684401E+00  0.74266853E+00  0.73844591E+00
  0.73418504E+00  0.72989526E+00  0.72558626E+00  0.72126797E+00  0.71695051E+00
  0.71264402E+00  0.70835864E+00  0.70410436E+00  0.69989092E+00  0.69572777E+00
  0.69162392E+00  0.68758791E+00  0.68362769E+00  0.67975057E+00  0.67596316E+00
  0.67227132E+00  0.66868010E+00  0.66519372E+00  0.66181552E+00  0.65854795E+00
  0.65539258E+00  0.65235006E+00  0.64942015E+00  0.64660172E+00  0.64389275E+00
  0.64129041E+00  0.63879104E+00  0.63639024E+00  0.63408290E+00  0.63186325E+00
  0.62972495E+00  0.62766113E+00  0.62566448E+00  0.62372732E+00  0.62184169E+00
  0.61999938E+00  0.61819207E+00  0.61641136E+00  0.61464889E+00  0.61289637E+00
  0.61114569E+00  0.60938900E+00  0.60761875E+00  0.60582779E+00  0.60400941E+00
  0.60215741E+00  0.60026616E+00  0.59833060E+00  0.59634634E+00  0.59430964E+00
  0.59221747E+00  0.59006751E+00  0.58785813E+00  0.58558849E+00  0.58325841E+00
  0.58086849E+00  0.57841998E+00  0.57591487E+00  0.57335575E+00  0.57074587E+00
  0.56808903E+00  0.56538959E+00  0.56265238E+00  0.55988264E+00  0.55708600E+00
  0.55426840E+00  0.55143602E+00  0.54859522E+00  0.54575251E+00  0.54291445E+00
  0.54008757E+00  0.53727838E+00  0.53449322E+00  0.53173827E+00  0.52901944E+00
  0.52634235E+00  0.52371226E+00  0.52113402E+00  0.51861203E+00  0.51615023E+00
  0.51375202E+00  0.51142028E+00  0.50915733E+00  0.50696489E+00  0.50484414E+00
  0.50279562E+00  0.50081931E+00  0.49891460E+00  0.49708030E+00  0.49531467E+00
  0.49361543E+00  0.49197978E+00  0.49040448E+00  0.48888582E+00  0.48741972E+00
  0.48600173E+00  0.48462711E+00  0.48329086E+00  0.48198778E+00  0.48071249E+00
  0.47945953E+00  0.47822339E+00  0.47699855E+00  0.47577953E+00  0.47456097E+00
  0.47333766E+00  0.47210460E+00  0.47085703E+00  0.46959048E+00  0.46830082E+00
  0.46698427E+00  0.46563747E+00  0.46425745E+00  0.46284172E+00  0.46138822E+00
  0.45989537E+00  0.45836209E+00  0.45678777E+00  0.45517229E+00  0.45351602E+00
  0.45181980E+00  0.45008494E+00  0.44831317E+00  0.44650667E+00  0.44466799E+00
  0.44280006E+00  0.44090613E+00  0.43898972E+00  0.43705465E+00  0.43510491E+00
  0.43314468E+00  0.43117827E+00  0.42921009E+00  0.42724457E+00  0.42528617E+00
  0.42333928E+00  0.42140822E+00  0.41949720E+00  0.41761023E+00  0.41575113E+00
  0.41392350E+00  0.41213063E+00  0.41037553E+00  0.40866088E+00  0.40698900E+00
  0.40536186E+00  0.40378103E+00  0.40224771E+00  0.40076267E+00  0.39932629E+00
  0.39793857E+00  0.39659906E+00  0.39530695E+00  0.39406105E+00  0.39285976E+00
  0.39170119E+00  0.39058307E+00  0.38950287E+00  0.38845777E+00  0.38744471E+00
  0.38646042E+00  0.38550145E+00  0.38456422E+00  0.38364504E+00  0.38274014E+00
  0.38184572E+00  0.38095798E+00  0.38007314E+00  0.37918754E+00  0.37829756E+00
  0.37739979E+00  0.37649094E+00  0.37556796E+00  0.37462802E+00  0.37366852E+00
  0.37268719E+00  0.37168200E+00  0.37065127E+00  0.36959361E+00  0.36850799E+00
  0.36739369E+00  0.36625035E+00  0.36507794E+00  0.36387678E+00  0.36264749E+00
  0.36139106E+00  0.36010875E+00  0.35880213E+00  0.35747305E+00  0.35612358E+00
  0.35475606E+00  0.35337299E+00  0.35197709E+00  0.35057119E+00  0.34915825E+00
  0.34774131E+00  0.34632349E+00  0.34490792E+00  0.34349774E+00  0.34209604E+00
  0.34070585E+00  0.33933013E+00  0.33797169E+00  0.33663321E+00  0.33531718E+00
  0.33402590E+00  0.33276146E+00  0.33152570E+00  0.33032022E+00  0.32914636E+00
  0.32800517E+00  0.32689744E+00  0.32582368E+00  0.32478408E+00  0.32377857E+00
  0.32280679E+00  0.32186809E+00  0.32096156E+00  0.32008602E+00  0.31924005E+00
  0.31842200E+00  0.31763000E+00  0.31686201E+00  0.31611580E+00  0.31538901E+00
  0.31467915E+00  0.31398363E+00  0.31329982E+00  0.31262500E+00  0.31195646E+00
  0.31129148E+00  0.31062737E+00  0.30996153E+00  0.30929139E+00  0.30861454E+00
  0.30792867E+00  0.30723162E+00  0.30652143E+00  0.30579629E+00  0.30505462E+00
  0.30429505E+00  0.30351642E+00  0.30271784E+00  0.30189862E+00  0.30105833E+00
  0.30019680E+00  0.29931409E+00  0.29841050E+00  0.29748659E+00  0.29654312E+00
  0.29558111E+00  0.29460176E+00  0.29360646E+00  0.29259681E+00  0.29157455E+00
  0.29054155E+00  0.28949981E+00  0.28845144E+00  0.28739863E+00  0.28634361E+00
  0.28528865E+00  0.28423605E+00  0.28318809E+00  0.28214701E+00  0.28111501E+00
  0.28009422E+00  0.27908666E+00  0.27809423E+00  0.27711872E+00  0.27616175E+00
  0.27522478E+00  0.27430911E+00  0.27341582E+00  0.27254582E+00  0.27169982E+00
  0.27087830E+00  0.27008156E+00  0.26930965E+00  0.26856245E+00  0.26783960E+00
  0.26714055E+00  0.26646455E+00  0.26581065E+00  0.26517775E+00  0.26456456E+00
  0.26396964E+00  0.26339143E+00  0.26282825E+00  0.26227831E+00  0.26173974E+00
  0.26121060E+00  0.26068894E+00  0.26017273E+00  0.25965996E+00  0.25914865E+00
  0.25863681E+00  0.25812254E+00  0.25760397E+00  0.25707936E+00  0.25654704E+00
  0.25600547E+00  0.25545325E+00  0.25488911E+00  0.25431195E+00  0.25372083E+00
  0.25311498E+00  0.25249381E+00  0.25185690E+00  0.25120403E+00  0.25053514E+00
  0.24985038E+00  0.24915006E+00  0.24843469E+00  0.24770493E+00  0.24696160E+00
  0.24620569E+00  0.24543831E+00  0.24466072E+00  0.24387428E+00  0.24308044E+00
  0.24228077E+00  0.24147686E+00  0.24067038E+00  0.23986304E+00  0.23905656E+00
  0.23825265E+00  0.23745303E+00  0.23665937E+00  0.23587331E+00  0.23509641E+00
  0.23433015E+00  0.23357593E+00  0.23283503E+00  0.23210862E+00  0.23139774E+00
  0.23070329E+00  0.23002601E+00  0.22936653E+00  0.22872527E+00  0.22810254E+00
  0.22749845E+00  0.22691299E+00  0.22634596E+00  0.22579701E+00  0.22526564E+00
  0.22475120E+00  0.22425290E+00  0.22376982E+00  0.22330094E+00  0.22284509E+00
  0.22240103E+00  0.22196744E+00  0.22154292E+00  0.22112602E+00  0.22071524E+00
  0.22030906E+00  0.21990595E+00  0.21950438E+00  0.21910284E+00  0.21869984E+00
  0.21829393E+00  0.21788376E+00  0.21746801E+00  0.21704546E+00  0.21661500E+00
  0.21617561E+00  0.21572639E+00  0.21526658E+00  0.21479552E+00  0.21431272E+00
  0.21381779E+00  0.21331050E+00  0.21279077E+00  0.21225865E+00  0.21171433E+00
  0.21115813E+00  0.21059053E+00  0.21001211E+00  0.20942358E+00  0.20882578E+00
  0.20821963E+00  0.20760614E+00  0.20698643E+00  0.20636167E+00  0.20573309E+00
  0.20510197E+00  0.20446961E+00  0.20383735E+00  0.20320653E+00  0.20257847E+00
  0.20195449E+00  0.20133587E+00  0.20072385E+00  0.20011961E+00  0.19952426E+00
  0.19893883E+00  0.19836428E+00  0.19780144E+00  0.19725106E+00  0.19671377E+00
  0.19619008E+00  0.19568039E+00  0.19518497E+00  0.19470397E+00  0.19423741E+00
  0.19378518E+00  0.19334706E+00  0.19292270E+00  0.19251164E+00  0.19211329E+00
  0.19172697E+00  0.19135191E+00  0.19098723E+00  0.19063199E+00  0.19028516E+00
  0.18994567E+00  0.18961239E+00  0.18928417E+00  0.18895980E+00  0.18863810E+00
  0.18831785E+00  0.18799786E+00  0.18767695E+00  0.18735398E+00  0.18702786E+00
  0.18669752E+00  0.18636199E+00  0.18602036E+00  0.18567181E+00  0.18531558E+00
  0.18495104E+00  0.18457766E+00  0.18419498E+00  0.18380268E+00  0.18340055E+00
  0.18298848E+00  0.18256646E+00  0.18213463E+00  0.18169320E+00  0.18124252E+00
  0.18078301E+00  0.18031521E+00  0.17983976E+00  0.17935736E+00  0.17886881E+00
  0.17837496E+00  0.17787673E+00  0.17737509E+00  0.17687104E+00  0.17636563E+00
  0.17585991E+00  0.17535495E+00  0.17485181E+00  0.17435154E+00  0.17385518E+00
  0.17336373E+00  0.17287814E+00  0.17239933E+00  0.17192814E+00  0.17146536E+00
  0.17101168E+00  0.17056772E+00  0.17013403E+00  0.16971104E+00  0.16929910E+00
  0.16889846E+00  0.16850927E+00  0.16813157E+00  0.16776532E+00  0.16741036E+00
  0.16706645E+00  0.16673323E+00  0.16641028E+00  0.16609707E+00  0.16579300E+00
  0.16549738E+00  0.16520948E+00  0.16492849E+00  0.16465355E+00  0.16438378E+00
  0.16411823E+00  0.16385596E+00  0.16359600E+00  0.16333739E+00  0.16307914E+00
  0.16282031E+00  0.16255997E+00  0.16229721E+00  0.16203117E+00  0.16176105E+00
  0.16148609E+00  0.16120559E+00  0.16091895E+00  0.16062561E+00  0.16032511E+00
  0.16001707E+00  0.15970120E+00  0.15937730E+00  0.15904526E+00  0.15870505E+00
  0.15835674E+00  0.15800050E+00  0.15763657E+00  0.15726527E+00  0.15688703E+00
  0.15650234E+00  0.15611175E+00  0.15571589E+00  0.15531545E+00  0.15491117E+00
  0.15450382E+00  0.15409421E+00  0.15368319E+00  0.15327161E+00  0.15286036E+00
  0.15245029E+00  0.15204228E+00  0.15163717E+00  0.15123579E+00  0.15083894E+00
  0.15044737E+00  0.15006179E+00  0.14968286E+00  0.14931118E+00  0.14894728E+00
  0.14859161E+00  0.14824456E+00  0.14790644E+00  0.14757748E+00  0.14725782E+00
  0.14694753E+00  0.14664659E+00  0.14635491E+00  0.14607229E+00  0.14579848E+00
  0.14553315E+00  0.14527588E+00  0.14502619E+00  0.14478355E+00  0.14454737E+00
  0.14431698E+00  0.14409170E+00  0.14387079E+00  0.14365351E+00  0.14343907E+00
  0.14322668E+00  0.14301552E+00  0.14280481E+00  0.14259375E+00  0.14238157E+00
  0.14216751E+00  0.14195086E+00  0.14173092E+00  0.14150706E+00  0.14127870E+00
  0.14104530E+00  0.14080640E+00  0.14056159E+00  0.14031054E+00  0.14005298E+00
  0.13978872E+00  0.13951765E+00  0.13923974E+00  0.13895501E+00  0.13866358E+00
 gradient corrections used for XC
           5
 core charge-density (partial)
  0.13714802E+01  0.13708420E+01  0.13689293E+01  0.13657471E+01  0.13613042E+01
  0.13556125E+01  0.13486875E+01  0.13405478E+01  0.13312151E+01  0.13207145E+01
  0.13090737E+01  0.12963235E+01  0.12824973E+01  0.12676311E+01  0.12517632E+01
  0.12349342E+01  0.12171868E+01  0.11985655E+01  0.11791164E+01  0.11588873E+01
  0.11379271E+01  0.11162859E+01  0.10940147E+01  0.10711651E+01  0.10477893E+01
  0.10239398E+01  0.99966929E+00  0.97503020E+00  0.95007488E+00  0.92485521E+00
  0.89942250E+00  0.87382731E+00  0.84811927E+00  0.82234701E+00  0.79655797E+00
  0.77079826E+00  0.74511261E+00  0.71954421E+00  0.69413462E+00  0.66892370E+00
  0.64394953E+00  0.61924835E+00  0.59485447E+00  0.57080028E+00  0.54711617E+00
  0.52383051E+00  0.50096966E+00  0.47855791E+00  0.45661754E+00  0.43516877E+00
  0.41422982E+00  0.39381691E+00  0.37394428E+00  0.35462427E+00  0.33586729E+00
  0.31768193E+00  0.30007499E+00  0.28305151E+00  0.26661489E+00  0.25076688E+00
  0.23550771E+00  0.22083611E+00  0.20674944E+00  0.19324369E+00  0.18031361E+00
  0.16795277E+00  0.15615363E+00  0.14490762E+00  0.13420522E+00  0.12403605E+00
  0.11438890E+00  0.10525184E+00  0.96612320E-01  0.88457171E-01  0.80772736E-01
  0.73544911E-01  0.66759221E-01  0.60400878E-01  0.54454850E-01  0.48905916E-01
  0.43738727E-01  0.38937857E-01  0.34487857E-01  0.30373305E-01  0.26578850E-01
  0.23089260E-01  0.19889458E-01  0.16964564E-01  0.14299925E-01  0.11881156E-01
  0.96941599E-02  0.77251625E-02  0.59607318E-02  0.43878017E-02  0.29936906E-02
  0.17661179E-02  0.69321854E-03 -0.23644524E-03 -0.10338745E-02 -0.17096258E-02
 -0.22738060E-02 -0.27360686E-02 -0.31056124E-02 -0.33911812E-02 -0.36010660E-02
 -0.37431078E-02 -0.38247032E-02 -0.38528096E-02 -0.38339532E-02 -0.37742371E-02
 -0.36793510E-02 -0.35545815E-02 -0.34048238E-02 -0.32345929E-02 -0.30480373E-02
 -0.28489512E-02 -0.26407890E-02 -0.24266790E-02 -0.22094379E-02 -0.19915853E-02
 -0.17753587E-02 -0.15627281E-02 -0.13554111E-02 -0.11548877E-02 -0.96241490E-03
 -0.77904135E-03 -0.60562182E-03 -0.44283123E-03 -0.29117848E-03 -0.15101996E-03
 -0.22572647E-04  0.94073164E-04  0.19894159E-03  0.29215933E-03  0.37394431E-03
  0.44459483E-03  0.50447920E-03  0.55402594E-03  0.59371446E-03  0.62406629E-03
  0.64563685E-03  0.65900776E-03  0.66477966E-03  0.66356563E-03  0.65598499E-03
  0.64265779E-03  0.62419966E-03  0.60121723E-03  0.57430400E-03  0.54403668E-03
  0.51097196E-03  0.47564374E-03  0.43856072E-03  0.40020446E-03  0.36102772E-03
  0.32145321E-03  0.28187266E-03  0.24264617E-03  0.20410192E-03  0.16653605E-03
  0.13021288E-03  0.95365254E-04  0.62195213E-04  0.30874743E-04  0.15467389E-05
 -0.25673891E-04 -0.50699001E-04 -0.73465874E-04 -0.93935799E-04 -0.11209257E-03
 -0.12794092E-03 -0.14150495E-03 -0.15282647E-03 -0.16196339E-03 -0.16898804E-03
 -0.17398558E-03 -0.17705235E-03 -0.17829430E-03 -0.17782547E-03 -0.17576648E-03
 -0.17224307E-03 -0.16738478E-03 -0.16132357E-03 -0.15419264E-03 -0.14612526E-03
 -0.13725366E-03 -0.12770804E-03 -0.11761569E-03 -0.10710010E-03 -0.96280264E-04
 -0.85269973E-04 -0.74177269E-04 -0.63103931E-04 -0.52145064E-04 -0.41388763E-04
 -0.30915845E-04 -0.20799669E-04 -0.11106008E-04 -0.18930047E-05  0.67888258E-05
  0.14896524E-04  0.22394567E-04  0.29254693E-04  0.35455687E-04  0.40983121E-04
  0.45829056E-04  0.49991719E-04  0.53475145E-04  0.56288793E-04  0.58447157E-04
  0.59969342E-04  0.60878647E-04  0.61202124E-04  0.60970148E-04  0.60215979E-04
  0.58975323E-04  0.57285911E-04  0.55187074E-04  0.52719340E-04  0.49924036E-04
  0.46842913E-04  0.43517786E-04  0.39990193E-04  0.36301076E-04  0.32490486E-04
  0.28597308E-04  0.24659010E-04  0.20711423E-04  0.16788539E-04  0.12922335E-04
  0.91426252E-05  0.54769379E-05  0.19504127E-05 -0.14142737E-05 -0.45969611E-05
 -0.75800356E-05 -0.10348439E-04 -0.12889658E-04 -0.15193691E-04 -0.17253001E-04
 -0.19062453E-04 -0.20619225E-04 -0.21922724E-04 -0.22974467E-04 -0.23777971E-04
 -0.24338623E-04 -0.24663541E-04 -0.24761432E-04 -0.24642444E-04 -0.24318016E-04
 -0.23800717E-04 -0.23104096E-04 -0.22242522E-04 -0.21231031E-04 -0.20085172E-04
 -0.18820857E-04 -0.17454218E-04 -0.16001466E-04 -0.14478756E-04 -0.12902064E-04
 -0.11287060E-04 -0.96490045E-05 -0.80026409E-05 -0.63621015E-05 -0.47408234E-05
 -0.31514723E-05 -0.16058761E-05 -0.11496882E-06  0.13112567E-05  0.26637863E-05
  0.39346123E-05  0.51167528E-05  0.62042611E-05  0.71922280E-05  0.80767741E-05
  0.88550361E-05  0.95251442E-05  0.10086194E-04  0.10538211E-04  0.10882110E-04
  0.11119649E-04  0.11253379E-04  0.11286589E-04  0.11223248E-04  0.11067944E-04
  0.10825821E-04  0.10502514E-04  0.10104083E-04  0.96369472E-05  0.91078164E-05
  0.85236283E-05  0.78914808E-05  0.72185698E-05  0.65121269E-05  0.57793604E-05
  0.50273982E-05  0.42632345E-05  0.34936786E-05  0.27253087E-05  0.19644278E-05
  0.12170251E-05  0.48874014E-06 -0.21516780E-06 -0.88984700E-06 -0.15308757E-05
 -0.21342802E-05 -0.26965494E-05 -0.32146442E-05 -0.36860033E-05 -0.41085451E-05
 -0.44806656E-05 -0.48012324E-05 -0.50695758E-05 -0.52854761E-05 -0.54491476E-05
 -0.55612210E-05 -0.56227216E-05 -0.56350466E-05 -0.55999395E-05 -0.55194629E-05
 -0.53959702E-05 -0.52320758E-05 -0.50306241E-05 -0.47946581E-05 -0.45273884E-05
 -0.42321601E-05 -0.39124220E-05 -0.35716950E-05 -0.32135407E-05 -0.28415322E-05
 -0.24592246E-05 -0.20701275E-05 -0.16776784E-05 -0.12852179E-05 -0.89596656E-06
 -0.51300339E-06 -0.13924635E-06  0.22256520E-06  0.56988599E-06  0.90037836E-06
  0.12119234E-05  0.15026305E-05  0.17708438E-05  0.20151479E-05  0.22343700E-05
  0.24275814E-05  0.25940960E-05  0.27334675E-05  0.28454848E-05  0.29301651E-05
  0.29877464E-05  0.30186777E-05  0.30236083E-05  0.30033756E-05  0.29589923E-05
  0.28916320E-05  0.28026146E-05  0.26933908E-05  0.25655260E-05  0.24206839E-05
  0.22606100E-05  0.20871151E-05  0.19020583E-05  0.17073305E-05  0.15048389E-05
  0.12964905E-05  0.10841770E-05  0.86976047E-06  0.65505935E-06  0.44183517E-06
  0.23178045E-06  0.26507452E-07 -0.17246218E-06 -0.36370661E-06 -0.54591195E-06
 -0.71787930E-06 -0.87853065E-06 -0.10269136E-05 -0.11622050E-05 -0.12837135E-05
 -0.13908806E-05 -0.14832813E-05 -0.15606229E-05 -0.16227437E-05 -0.16696096E-05
 -0.17013107E-05 -0.17180566E-05 -0.17201713E-05 -0.17080865E-05 -0.16823355E-05
 -0.16435451E-05 -0.15924283E-05 -0.15297756E-05 -0.14564465E-05 -0.13733605E-05
 -0.12814878E-05 -0.11818401E-05 -0.10754614E-05 -0.96341847E-06 -0.84679162E-06
 -0.72666592E-06 -0.60412218E-06 -0.48022851E-06 -0.35603216E-06 -0.23255180E-06
 -0.11077019E-06  0.83725583E-08  0.12398527E-06  0.23523135E-06  0.34133389E-06
  0.44158007E-06  0.53532506E-06  0.62199511E-06  0.70109008E-06  0.77218534E-06
  0.83493291E-06  0.88906208E-06  0.93437931E-06  0.97076758E-06  0.99818510E-06
  0.10166635E-05  0.10263056E-05  0.10272822E-05  0.10198294E-05  0.10042442E-05
  0.98088080E-06  0.95014616E-06  0.91249510E-06  0.86842540E-06  0.81847264E-06
  0.76320487E-06  0.70321713E-06  0.63912597E-06  0.57156395E-06  0.50117413E-06
  0.42860463E-06  0.35450335E-06  0.27951275E-06  0.20426495E-06  0.12937689E-06
  0.55445847E-07 -0.16954777E-07 -0.87279419E-07 -0.15501394E-06 -0.21967888E-06
 -0.28083236E-06 -0.33807258E-06 -0.39103998E-06 -0.43941894E-06 -0.48293916E-06
 -0.52137660E-06 -0.55455403E-06 -0.58234122E-06 -0.60465469E-06 -0.62145721E-06
 -0.63275683E-06 -0.63860562E-06 -0.63909813E-06 -0.63436952E-06 -0.62459338E-06
 -0.60997940E-06 -0.59077070E-06 -0.56724105E-06 -0.53969192E-06 -0.50844930E-06
 -0.47386049E-06 -0.43629079E-06 -0.39612012E-06 -0.35373959E-06 -0.30954812E-06
 -0.26394903E-06 -0.21734673E-06 -0.17014347E-06 -0.12273614E-06 -0.75513287E-07
 -0.28852206E-07  0.16883802E-07  0.61347962E-07  0.10421238E-06  0.14517020E-06
  0.18393752E-06  0.22025508E-06  0.25388972E-06  0.28463562E-06  0.31231523E-06
  0.33678000E-06  0.35791088E-06  0.37561848E-06  0.38984314E-06  0.40055459E-06
  0.40775155E-06  0.41146099E-06  0.41173723E-06  0.40866084E-06  0.40233739E-06
  0.39289597E-06  0.38048759E-06  0.36528349E-06  0.34747323E-06  0.32726277E-06
  0.30487242E-06  0.28053476E-06  0.25449246E-06  0.22699613E-06  0.19830211E-06
  0.16867030E-06  0.13836200E-06  0.10763779E-06  0.76755463E-07  0.45968040E-07
  0.15521858E-07 -0.14345238E-07 -0.43405599E-07 -0.71443345E-07 -0.98255817E-07
 -0.12365489E-06 -0.14746813E-06 -0.16953982E-06 -0.18973181E-06 -0.20792419E-06
 -0.22401588E-06 -0.23792497E-06 -0.24958892E-06 -0.25896465E-06 -0.26602844E-06
 -0.27077563E-06 -0.27322027E-06 -0.27339459E-06 -0.27134829E-06 -0.26714777E-06
 -0.26087522E-06 -0.25262762E-06 -0.24251562E-06 -0.23066236E-06 -0.21720218E-06
 -0.20227935E-06 -0.18604663E-06 -0.16866391E-06 -0.15029679E-06 -0.13111506E-06
 -0.11129132E-06 -0.90999519E-07 -0.70413515E-07 -0.49705721E-07 -0.29045747E-07
 -0.85991038E-08  0.11474021E-07  0.31019930E-07  0.49892497E-07  0.67954174E-07
  0.85076898E-07  0.10114291E-06  0.11604547E-06  0.12968946E-06  0.14199193E-06
  0.15288245E-06  0.16230344E-06  0.17021032E-06  0.17657162E-06  0.18136894E-06
  0.18459680E-06  0.18626243E-06  0.18638545E-06  0.18499742E-06  0.18214135E-06
  0.17787112E-06  0.17225082E-06  0.16535401E-06  0.15726296E-06  0.14806777E-06
  0.13786552E-06  0.12675934E-06  0.11485747E-06  0.10227225E-06  0.89119207E-07
  0.75515991E-07  0.61581446E-07  0.47434611E-07  0.33193777E-07  0.18975551E-07
  0.48939664E-08 -0.89403807E-08 -0.22421139E-07 -0.35446966E-07 -0.47922235E-07
 -0.59757678E-07 -0.70870975E-07 -0.81187263E-07 -0.90639588E-07 -0.99169274E-07
 -0.10672623E-06 -0.11326916E-06 -0.11876575E-06 -0.12319271E-06 -0.12653578E-06
 -0.12878969E-06 -0.12995800E-06 -0.13005291E-06 -0.12909497E-06 -0.12711276E-06
 -0.12414250E-06 -0.12022764E-06 -0.11541830E-06 -0.10977080E-06 -0.10334708E-06
 -0.96214059E-07 -0.88443037E-07 -0.80109028E-07 -0.71290087E-07 -0.62066631E-07
 -0.52520748E-07 -0.42735511E-07 -0.32794295E-07 -0.22780104E-07 -0.12774918E-07
 -0.28590583E-08  0.68894227E-08  0.16395320E-07  0.25586823E-07  0.34396019E-07
  0.42759365E-07  0.50618108E-07  0.57918665E-07  0.64612948E-07  0.70658644E-07
  0.76019446E-07  0.80665223E-07  0.84572147E-07  0.87722761E-07  0.90105999E-07
  0.91717153E-07  0.92557791E-07  0.92635623E-07  0.91964328E-07  0.90563330E-07
  0.88457535E-07  0.85677031E-07  0.82256749E-07  0.78236095E-07  0.73658550E-07
  0.68571250E-07  0.63024538E-07  0.57071507E-07  0.50767520E-07  0.44169731E-07
  0.37336592E-07  0.30327365E-07  0.23201631E-07  0.16018812E-07  0.88376985E-08
  0.17159887E-08 -0.52901476E-08 -0.12126492E-07 -0.18741175E-07 -0.25085045E-07
 -0.31112012E-07 -0.36779364E-07 -0.42048040E-07 -0.46882879E-07 -0.51252831E-07
 -0.55131130E-07 -0.58495428E-07 -0.61327899E-07 -0.63615294E-07 -0.65348969E-07
 -0.66524870E-07 -0.67143482E-07 -0.67209747E-07 -0.66732943E-07 -0.65726531E-07
 -0.64207978E-07 -0.62198541E-07 -0.59723035E-07 -0.56809568E-07 -0.53489260E-07
 -0.49795942E-07 -0.45765836E-07 -0.41437228E-07 -0.36850122E-07 -0.32045889E-07
 -0.27066921E-07 -0.21956265E-07 -0.16757273E-07 -0.11513252E-07 -0.62671145E-08
 -0.10610459E-08  0.40638203E-08  0.90677130E-08  0.13912517E-07  0.18562049E-07
  0.22982313E-07  0.27141734E-07  0.31011368E-07  0.34565089E-07  0.37779747E-07
  0.40635306E-07  0.43114945E-07  0.45205143E-07  0.46895725E-07  0.48179891E-07
  0.49054213E-07  0.49518599E-07  0.49576244E-07  0.49233545E-07  0.48499999E-07
  0.47388071E-07  0.45913045E-07  0.44092859E-07  0.41947911E-07  0.39500859E-07
  0.36776400E-07  0.33801041E-07  0.30602855E-07  0.27211230E-07  0.23656617E-07
  0.19970264E-07  0.16183954E-07  0.12329747E-07  0.84397145E-08  0.45456839E-08
  0.67899089E-09 -0.31297646E-08 -0.68509499E-08 -0.10456121E-07 -0.13918228E-07
 -0.17211812E-07 -0.20313178E-07 -0.23200558E-07 -0.25854254E-07 -0.28256756E-07
 -0.30392855E-07 -0.32249719E-07 -0.33816961E-07 -0.35086680E-07 -0.36053487E-07
 -0.36714504E-07 -0.37069348E-07 -0.37120094E-07 -0.36871216E-07 -0.36329519E-07
 -0.35504041E-07 -0.34405945E-07 -0.33048402E-07 -0.31446447E-07 -0.29616833E-07
 -0.27577869E-07 -0.25349246E-07 -0.22951865E-07 -0.20407641E-07 -0.17739321E-07
 -0.14970284E-07 -0.12124346E-07 -0.92255621E-08 -0.62980326E-08 -0.33657069E-08
 -0.45219708E-09  0.24194066E-08  0.52267114E-08  0.79481898E-08  0.10563338E-07
  0.13052825E-07  0.15398624E-07  0.17584144E-07  0.19594331E-07  0.21415771E-07
  0.23036767E-07  0.24447411E-07  0.25639629E-07  0.26607223E-07  0.27345886E-07
  0.27853212E-07  0.28128684E-07  0.28173648E-07  0.27991275E-07  0.27586507E-07
  0.26965991E-07  0.26138000E-07  0.25112338E-07  0.23900247E-07  0.22514287E-07
  0.20968219E-07  0.19276877E-07  0.17456032E-07  0.15522254E-07  0.13492765E-07
  0.11385294E-07  0.92179263E-08  0.70089528E-08  0.47767234E-08  0.25394978E-08
  0.31530158E-09 -0.18782143E-08 -0.40239090E-08 -0.61052806E-08 -0.81065888E-08
 -0.10012969E-07 -0.11810538E-07 -0.13486489E-07 -0.15029181E-07 -0.16428212E-07
 -0.17674482E-07 -0.18760252E-07 -0.19679178E-07 -0.20426349E-07 -0.20998299E-07
 -0.21393015E-07 -0.21609935E-07 -0.21649925E-07 -0.21515257E-07 -0.21209567E-07
 -0.20737805E-07 -0.20106180E-07 -0.19322088E-07 -0.18394040E-07 -0.17331573E-07
 -0.16145161E-07 -0.14846120E-07 -0.13446501E-07 -0.11958986E-07 -0.10396778E-07
 -0.87734859E-08 -0.71030105E-08 -0.53994310E-08 -0.36768879E-08 -0.19494705E-08
 -0.23110451E-09  0.14645567E-08  0.31242371E-08  0.47351386E-08  0.62850368E-08
  0.77623696E-08  0.91563211E-08  0.10456897E-07  0.11654991E-07  0.12742448E-07
  0.13712113E-07  0.14557878E-07  0.15274708E-07  0.15858676E-07  0.16306970E-07
  0.16617906E-07  0.16790923E-07  0.16826570E-07  0.16726489E-07  0.16493384E-07
  0.16130988E-07  0.15644013E-07  0.15038106E-07  0.14319783E-07  0.13496372E-07
  0.12575939E-07  0.11567212E-07  0.10479507E-07  0.93226413E-08  0.81068503E-08
  0.68426986E-08  0.55409915E-08  0.42126860E-08  0.28688004E-08  0.15203256E-08
  0.17813832E-09 -0.11470851E-08 -0.24449505E-08 -0.37054255E-08 -0.49189144E-08
 -0.60763287E-08 -0.71691533E-08 -0.81895059E-08 -0.91301921E-08 -0.99847527E-08
 -0.10747506E-07 -0.11413582E-07 -0.11978950E-07 -0.12440442E-07 -0.12795761E-07
 -0.13043493E-07 -0.13183104E-07 -0.13214931E-07 -0.13140170E-07 -0.12960854E-07
 -0.12679825E-07 -0.12300700E-07 -0.11827835E-07 -0.11266275E-07 -0.10621708E-07
 -0.99004107E-08 -0.91091896E-08 -0.82553198E-08 -0.73464810E-08 -0.63906905E-08
 -0.53962345E-08 -0.43715986E-08 -0.33253975E-08 -0.22663041E-08 -0.12029796E-08
 -0.14400476E-09  0.90218801E-09  0.19273798E-08  0.29236279E-08  0.38833260E-08
  0.47992602E-08  0.56646614E-08  0.64732539E-08  0.72192986E-08  0.78976322E-08
  0.85037007E-08  0.90335877E-08  0.94840376E-08  0.98524729E-08  0.10137006E-07
  0.10336445E-07  0.10450294E-07  0.10478749E-07  0.10422688E-07  0.10283651E-07
  0.10063824E-07  0.97660116E-08  0.93936047E-08  0.89505486E-08  0.84413026E-08
  0.78707985E-08  0.72443948E-08  0.65678288E-08  0.58471655E-08  0.50887449E-08
  0.42991285E-08  0.34850433E-08  0.26533264E-08  0.18108689E-08  0.96455990E-09
  0.12123197E-09 -0.71239309E-09 -0.15297564E-08 -0.23245122E-08 -0.30905762E-08
 -0.38221703E-08 -0.45138656E-08 -0.51606206E-08 -0.57578172E-08 -0.63012917E-08
 -0.67873630E-08 -0.72128551E-08 -0.75751171E-08 -0.78720368E-08 -0.81020515E-08
 -0.82641535E-08 -0.83578908E-08 -0.83833642E-08 -0.83412195E-08 -0.82326354E-08
 -0.80593077E-08 -0.78234289E-08 -0.75276650E-08 -0.71751279E-08 -0.67693454E-08
 -0.63142276E-08 -0.58140309E-08 -0.52733200E-08 -0.46969274E-08 -0.40899115E-08
 -0.34575134E-08 -0.28051130E-08 -0.21381841E-08 -0.14622496E-08 -0.78283661E-09
 -0.10543261E-09  0.56455823E-09  0.12218571E-08  0.18613510E-08  0.24781320E-08
  0.30675335E-08  0.36251648E-08  0.41469427E-08  0.46291205E-08  0.50683137E-08
  0.54615228E-08  0.58061526E-08  0.61000278E-08  0.63414057E-08  0.65289842E-08
  0.66619079E-08  0.67397686E-08  0.67626037E-08  0.67308905E-08  0.66455368E-08
  0.65078689E-08  0.63196157E-08  0.60828900E-08  0.58001673E-08  0.54742617E-08
  0.51082991E-08  0.47056885E-08  0.42700918E-08  0.38053910E-08  0.33156552E-08
  0.28051052E-08  0.22780784E-08  0.17389927E-08  0.11923102E-08  0.64250112E-09
 kinetic energy density (partial)
  0.18384394E+03  0.18376201E+03  0.18351646E+03  0.18310789E+03  0.18253736E+03
  0.18180632E+03  0.18091663E+03  0.17987055E+03  0.17867073E+03  0.17732017E+03
  0.17582227E+03  0.17418076E+03  0.17239971E+03  0.17048349E+03  0.16843679E+03
  0.16626456E+03  0.16397203E+03  0.16156466E+03  0.15904812E+03  0.15642828E+03
  0.15371119E+03  0.15090303E+03  0.14801012E+03  0.14503889E+03  0.14199584E+03
  0.13888752E+03  0.13572054E+03  0.13250150E+03  0.12923699E+03  0.12593359E+03
  0.12259780E+03  0.11923607E+03  0.11585476E+03  0.11246010E+03  0.10905823E+03
  0.10565512E+03  0.10225658E+03  0.98868274E+02  0.95495664E+02  0.92144018E+02
  0.88818401E+02  0.85523660E+02  0.82264415E+02  0.79045059E+02  0.75869741E+02
  0.72742371E+02  0.69666609E+02  0.66645866E+02  0.63683300E+02  0.60781819E+02
  0.57944074E+02  0.55172467E+02  0.52469150E+02  0.49836027E+02  0.47274761E+02
  0.44786772E+02  0.42373251E+02  0.40035156E+02  0.37773227E+02  0.35587985E+02
  0.33479747E+02  0.31448626E+02  0.29494547E+02  0.27617247E+02  0.25816292E+02
  0.24091081E+02  0.22440854E+02  0.20864707E+02  0.19361596E+02  0.17930350E+02
  0.16569678E+02  0.15278178E+02  0.14054352E+02  0.12896608E+02  0.11803272E+02
  0.10772601E+02  0.98027845E+01  0.88919596E+01  0.80382158E+01  0.72396045E+01
  0.64941467E+01  0.57998405E+01  0.51546685E+01  0.45566050E+01  0.40036223E+01
  0.34936974E+01  0.30248177E+01  0.25949869E+01  0.22022301E+01  0.18445989E+01
  0.15201759E+01  0.12270789E+01  0.96346484E+00  0.72753330E+00  0.51752969E+00
  0.33174808E+00  0.16853376E+00  0.26285369E-01 -0.96543199E-01 -0.20144122E+00
 -0.28983988E+00 -0.36311128E+00 -0.42256768E+00 -0.46946112E+00 -0.50498312E+00
 -0.53026475E+00 -0.54637685E+00 -0.55433050E+00 -0.55507766E+00 -0.54951197E+00
 -0.53846979E+00 -0.52273130E+00 -0.50302181E+00 -0.48001318E+00 -0.45432533E+00
 -0.42652788E+00 -0.39714188E+00 -0.36664157E+00 -0.33545629E+00 -0.30397235E+00
 -0.27253499E+00 -0.24145040E+00 -0.21098768E+00 -0.18138092E+00 -0.15283115E+00
 -0.12550841E+00 -0.99553742E-01 -0.75081145E-01 -0.52179559E-01 -0.30914760E-01
 -0.11331243E-01  0.65459559E-02  0.22709481E-01  0.37167941E-01  0.49944245E-01
  0.61074014E-01  0.70604051E-01  0.78590881E-01  0.85099362E-01  0.90201372E-01
  0.93974570E-01  0.96501223E-01  0.97867120E-01  0.98160552E-01  0.97471371E-01
  0.95890122E-01  0.93507242E-01  0.90412344E-01  0.86693555E-01  0.82436935E-01
  0.77725951E-01  0.72641028E-01  0.67259146E-01  0.61653512E-01  0.55893274E-01
  0.50043299E-01  0.44163996E-01  0.38311189E-01  0.32536036E-01  0.26884984E-01
  0.21399770E-01  0.16117454E-01  0.11070486E-01  0.62867983E-02  0.17899317E-02
 -0.24008198E-02 -0.62702413E-02 -0.98070117E-02 -0.13003502E-01 -0.15855564E-01
 -0.18362299E-01 -0.20525835E-01 -0.22351078E-01 -0.23845476E-01 -0.25018775E-01
 -0.25882771E-01 -0.26451068E-01 -0.26738844E-01 -0.26762612E-01 -0.26539993E-01
 -0.26089500E-01 -0.25430319E-01 -0.24582113E-01 -0.23564825E-01 -0.22398501E-01
 -0.21103118E-01 -0.19698427E-01 -0.18203805E-01 -0.16638129E-01 -0.15019647E-01
 -0.13365879E-01 -0.11693516E-01 -0.10018343E-01 -0.83551644E-02 -0.67177511E-02
 -0.51187915E-02 -0.35698578E-02 -0.20813828E-02 -0.66264586E-03  0.67823031E-03
  0.19342740E-02  0.30996505E-02  0.41696393E-02  0.51406052E-02  0.60099618E-02
  0.67761292E-02  0.74384868E-02  0.79973209E-02  0.84537688E-02  0.88097597E-02
  0.90679518E-02  0.92316692E-02  0.93048357E-02  0.92919084E-02  0.91978112E-02
  0.90278683E-02  0.87877379E-02  0.84833477E-02  0.81208318E-02  0.77064696E-02
  0.72466263E-02  0.67476972E-02  0.62160540E-02  0.56579947E-02  0.50796963E-02
  0.44871720E-02  0.38862308E-02  0.32824420E-02  0.26811027E-02  0.20872097E-02
  0.15054350E-02  0.94010517E-03  0.39518459E-03 -0.12573759E-03 -0.61945689E-03
 -0.10831594E-02 -0.15144243E-02 -0.19112232E-02 -0.22719164E-02 -0.25952464E-02
 -0.28803284E-02 -0.31266389E-02 -0.33340012E-02 -0.35025703E-02 -0.36328141E-02
 -0.37254948E-02 -0.37816478E-02 -0.38025600E-02 -0.37897470E-02 -0.37449297E-02
 -0.36700105E-02 -0.35670490E-02 -0.34382380E-02 -0.32858790E-02 -0.31123589E-02
 -0.29201264E-02 -0.27116692E-02 -0.24894926E-02 -0.22560977E-02 -0.20139619E-02
 -0.17655202E-02 -0.15131470E-02 -0.12591401E-02 -0.10057056E-02 -0.75494442E-03
 -0.50884008E-03 -0.26924808E-03 -0.37886755E-04  0.18367035E-03  0.39400067E-03
  0.59183727E-03  0.77607213E-03  0.94575798E-03  0.11001088E-02  0.12384990E-02
  0.13604616E-02  0.14656845E-02  0.15540069E-02  0.16254135E-02  0.16800287E-02
  0.17181091E-02  0.17400362E-02  0.17463076E-02  0.17375283E-02  0.17144012E-02
  0.16777169E-02  0.16283444E-02  0.15672201E-02  0.14953377E-02  0.14137378E-02
  0.13234976E-02  0.12257206E-02  0.11215268E-02  0.10120426E-02  0.89839213E-03
  0.78168773E-03  0.66302170E-03  0.54345832E-03  0.42402638E-03  0.30571238E-03
  0.18945425E-03  0.76135777E-04 -0.33418365E-04 -0.13844687E-03 -0.23825542E-03
 -0.33221962E-03 -0.41978729E-03 -0.50048002E-03 -0.57389417E-03 -0.63970118E-03
 -0.69764729E-03 -0.74755272E-03 -0.78931018E-03 -0.82288303E-03 -0.84830279E-03
 -0.86566634E-03 -0.87513258E-03 -0.87691887E-03 -0.87129700E-03 -0.85858901E-03
 -0.83916266E-03 -0.81342679E-03 -0.78182647E-03 -0.74483811E-03 -0.70296442E-03
 -0.65672944E-03 -0.60667351E-03 -0.55334833E-03 -0.49731212E-03 -0.43912490E-03
 -0.37934390E-03 -0.31851920E-03 -0.25718958E-03 -0.19587858E-03 -0.13509084E-03
 -0.75308738E-04 -0.16989311E-04  0.39438525E-04  0.93576414E-04  0.14505867E-03
  0.19355408E-03  0.23876731E-03  0.28044008E-03  0.31835185E-03  0.35232037E-03
  0.38220174E-03  0.40789027E-03  0.42931799E-03  0.44645390E-03  0.45930294E-03
  0.46790472E-03  0.47233202E-03  0.47268908E-03  0.46910966E-03  0.46175501E-03
  0.45081161E-03  0.43648884E-03  0.41901653E-03  0.39864240E-03  0.37562951E-03
  0.35025363E-03  0.32280059E-03  0.29356364E-03  0.26284090E-03  0.23093274E-03
  0.19813935E-03  0.16475831E-03  0.13108229E-03  0.97396872E-04  0.63978462E-04
  0.31092399E-04 -0.10088348E-05 -0.32087220E-04 -0.61920648E-04 -0.90304190E-04
 -0.11705120E-03 -0.14199420E-03 -0.16498568E-03 -0.18589858E-03 -0.20462668E-03
 -0.22108482E-03 -0.23520892E-03 -0.24695578E-03 -0.25630284E-03 -0.26324769E-03
 -0.26780744E-03 -0.27001801E-03 -0.26993325E-03 -0.26762394E-03 -0.26317673E-03
 -0.25669291E-03 -0.24828720E-03 -0.23808640E-03 -0.22622800E-03 -0.21285873E-03
 -0.19813316E-03 -0.18221217E-03 -0.16526150E-03 -0.14745026E-03 -0.12894947E-03
 -0.10993064E-03 -0.90564378E-04 -0.71019054E-04 -0.51459500E-04 -0.32045804E-04
 -0.12932164E-04  0.57341723E-05  0.23813890E-04  0.41176486E-04  0.57701062E-04
  0.73277011E-04  0.87804605E-04  0.10119548E-03  0.11337302E-03  0.12427261E-03
  0.13384185E-03  0.14204058E-03  0.14884088E-03  0.15422693E-03  0.15819479E-03
  0.16075211E-03  0.16191772E-03  0.16172118E-03  0.16020222E-03  0.15741013E-03
  0.15340316E-03  0.14824770E-03  0.14201759E-03  0.13479331E-03  0.12666115E-03
  0.11771231E-03  0.10804211E-03  0.97749056E-04  0.86933981E-04  0.75699171E-04
  0.64147507E-04  0.52381620E-04  0.40503076E-04  0.28611594E-04  0.16804293E-04
  0.51749876E-05 -0.61864785E-05 -0.17194842E-04 -0.27769981E-04 -0.37837421E-04
 -0.47328775E-04 -0.56182136E-04 -0.64342395E-04 -0.71761500E-04 -0.78398660E-04
 -0.84220474E-04 -0.89201005E-04 -0.93321789E-04 -0.96571789E-04 -0.98947286E-04
 -0.10045172E-03 -0.10109546E-03 -0.10089558E-03 -0.99875482E-04 -0.98064615E-04
 -0.95498031E-04 -0.92215982E-04 -0.88263457E-04 -0.83689700E-04 -0.78547707E-04
 -0.72893704E-04 -0.66786615E-04 -0.60287517E-04 -0.53459100E-04 -0.46365124E-04
 -0.39069877E-04 -0.31637647E-04 -0.24132211E-04 -0.16616333E-04 -0.91512875E-05
 -0.17964058E-05  0.53913502E-05  0.12357786E-04  0.19051838E-04  0.25425908E-04
  0.31436155E-04  0.37042757E-04  0.42210125E-04  0.46907091E-04  0.51107042E-04
  0.54788028E-04  0.57932816E-04  0.60528919E-04  0.62568578E-04  0.64048707E-04
  0.64970806E-04  0.65340838E-04  0.65169073E-04  0.64469899E-04  0.63261613E-04
  0.61566172E-04  0.59408939E-04  0.56818389E-04  0.53825813E-04  0.50464997E-04
  0.46771892E-04  0.42784274E-04  0.38541403E-04  0.34083664E-04  0.29452226E-04
  0.24688688E-04  0.19834739E-04  0.14931819E-04  0.10020794E-04  0.51416450E-05
  0.33316229E-06 -0.43673324E-05 -0.89242528E-05 -0.13303993E-04 -0.17475150E-04
 -0.21408725E-04 -0.25078299E-04 -0.28460189E-04 -0.31533569E-04 -0.34280575E-04
 -0.36686381E-04 -0.38739244E-04 -0.40430533E-04 -0.41754725E-04 -0.42709377E-04
 -0.43295079E-04 -0.43515379E-04 -0.43376686E-04 -0.42888159E-04 -0.42061567E-04
 -0.40911137E-04 -0.39453389E-04 -0.37706946E-04 -0.35692344E-04 -0.33431820E-04
 -0.30949100E-04 -0.28269173E-04 -0.25418063E-04 -0.22422601E-04 -0.19310189E-04
 -0.16108567E-04 -0.12845587E-04 -0.95489860E-05 -0.62461650E-05 -0.29639784E-05
  0.27147015E-06  0.34350196E-05  0.65026332E-05  0.94515664E-05  0.12260521E-04
  0.14909784E-04  0.17381354E-04  0.19659043E-04  0.21728572E-04  0.23577645E-04
  0.25195999E-04  0.26575450E-04  0.27709908E-04  0.28595386E-04  0.29229984E-04
  0.29613862E-04  0.29749194E-04  0.29640108E-04  0.29292612E-04  0.28714505E-04
  0.27915282E-04  0.26906014E-04  0.25699232E-04  0.24308797E-04  0.22749757E-04
  0.21038204E-04  0.19191124E-04  0.17226241E-04  0.15161860E-04  0.13016710E-04
  0.10809784E-04  0.85601795E-05  0.62869475E-05  0.40089378E-05  0.17446530E-05
 -0.48789205E-06 -0.26713054E-05 -0.47889439E-05 -0.68250317E-05 -0.87647686E-05
 -0.10594429E-04 -0.12301450E-04 -0.13874509E-04 -0.15303588E-04 -0.16580029E-04
 -0.17696575E-04 -0.18647401E-04 -0.19428131E-04 -0.20035843E-04 -0.20469067E-04
 -0.20727764E-04 -0.20813300E-04 -0.20728407E-04 -0.20477131E-04 -0.20064780E-04
 -0.19497848E-04 -0.18783949E-04 -0.17931725E-04 -0.16950764E-04 -0.15851498E-04
 -0.14645110E-04 -0.13343424E-04 -0.11958799E-04 -0.10504021E-04 -0.89921937E-05
 -0.74366226E-05 -0.58507085E-05 -0.42478373E-05 -0.26412725E-05 -0.10440520E-05
  0.53111212E-06  0.20719294E-05  0.35666209E-05  0.50040041E-05  0.63735706E-05
  0.76655579E-05  0.88710130E-05  0.99818485E-05  0.10990891E-04  0.11891923E-04
  0.12679710E-04  0.13350029E-04  0.13899680E-04  0.14326493E-04  0.14629326E-04
  0.14808057E-04  0.14863561E-04  0.14797689E-04  0.14613232E-04  0.14313883E-04
  0.13904189E-04  0.13389499E-04  0.12775909E-04  0.12070193E-04  0.11279744E-04
  0.10412497E-04  0.94768598E-05  0.84816330E-05  0.74359358E-05  0.63491253E-05
  0.52307177E-05  0.40903090E-05  0.29374968E-05  0.17818033E-05  0.63260070E-06
 -0.50096148E-06 -0.16100254E-05 -0.26860904E-05 -0.37210750E-05 -0.47073736E-05
 -0.56379091E-05 -0.65061799E-05 -0.73063014E-05 -0.80330425E-05 -0.86818553E-05
 -0.92488994E-05 -0.97310601E-05 -0.10125960E-04 -0.10431966E-04 -0.10648188E-04
 -0.10774472E-04 -0.10811390E-04 -0.10760223E-04 -0.10622935E-04 -0.10402149E-04
 -0.10101112E-04 -0.97236588E-05 -0.92741698E-05 -0.87575285E-05 -0.81790718E-05
 -0.75445402E-05 -0.68600240E-05 -0.61319094E-05 -0.53668213E-05 -0.45715666E-05
 -0.37530765E-05 -0.29183487E-05 -0.20743901E-05 -0.12281608E-05 -0.38651930E-06
  0.44383122E-06  0.12563934E-05  0.20449244E-05  0.28034814E-05  0.35264642E-05
  0.42086540E-05  0.48452488E-05  0.54318947E-05  0.59647131E-05  0.64403237E-05
  0.68558631E-05  0.72089987E-05  0.74979389E-05  0.77214377E-05  0.78787960E-05
  0.79698575E-05  0.79950011E-05  0.79551287E-05  0.78516494E-05  0.76864592E-05
  0.74619185E-05  0.71808245E-05  0.68463822E-05  0.64621718E-05  0.60321132E-05
  0.55604299E-05  0.50516095E-05  0.45103634E-05  0.39415857E-05  0.33503108E-05
  0.27416706E-05  0.21208523E-05  0.14930553E-05  0.86344995E-06  0.23713621E-06
 -0.38089575E-06 -0.98580386E-06 -0.15729305E-05 -0.21378366E-05 -0.26763339E-05
 -0.31845142E-05 -0.36587763E-05 -0.40958494E-05 -0.44928147E-05 -0.48471221E-05
 -0.51566056E-05 -0.54194937E-05 -0.56344179E-05 -0.58004165E-05 -0.59169362E-05
 -0.59838299E-05 -0.60013511E-05 -0.59701460E-05 -0.58912413E-05 -0.57660308E-05
 -0.55962575E-05 -0.53839948E-05 -0.51316241E-05 -0.48418113E-05 -0.45174805E-05
 -0.41617868E-05 -0.37780876E-05 -0.33699117E-05 -0.29409294E-05 -0.24949200E-05
 -0.20357404E-05 -0.15672926E-05 -0.10934921E-05 -0.61823620E-06 -0.14537283E-06
  0.32132906E-06  0.77820874E-06  0.12217412E-05  0.16485633E-05  0.20554983E-05
  0.24395781E-05  0.27980640E-05  0.31284653E-05  0.34285549E-05  0.36963832E-05
  0.39302900E-05  0.41289126E-05  0.42911923E-05  0.44163787E-05  0.45040305E-05
  0.45540143E-05  0.45665013E-05  0.45419610E-05  0.44811529E-05  0.43851162E-05
  0.42551572E-05  0.40928344E-05  0.38999428E-05  0.36784954E-05  0.34307042E-05
  0.31589592E-05  0.28658068E-05  0.25539269E-05  0.22261094E-05  0.18852304E-05
  0.15342277E-05  0.11760766E-05  0.81376500E-06  0.45026995E-06  0.88533475E-07
 -0.26856022E-06 -0.61820705E-06 -0.95770432E-06 -0.12844708E-05 -0.15960658E-05
 -0.18902062E-05 -0.21647829E-05 -0.24178748E-05 -0.26477615E-05 -0.28529343E-05
 -0.30321048E-05 -0.31842122E-05 -0.33084285E-05 -0.34041618E-05 -0.34710572E-05
 -0.35089964E-05 -0.35180955E-05 -0.34987001E-05 -0.34513795E-05 -0.33769188E-05
 -0.32763098E-05 -0.31507394E-05 -0.30015780E-05 -0.28303652E-05 -0.26387956E-05
 -0.24287027E-05 -0.22020421E-05 -0.19608746E-05 -0.17073475E-05 -0.14436767E-05
 -0.11721277E-05 -0.89499680E-06 -0.61459239E-06 -0.33321616E-06 -0.53144826E-07
  0.22338776E-06  0.49420789E-06  0.75721853E-06  0.10104150E-05  0.12518999E-05
  0.14798964E-05  0.16927611E-05  0.18889953E-05  0.20672547E-05  0.22263582E-05
  0.23652951E-05  0.24832305E-05  0.25795099E-05  0.26536616E-05  0.27053981E-05
  0.27346159E-05  0.27413934E-05  0.27259881E-05  0.26888319E-05  0.26305252E-05
  0.25518297E-05  0.24536603E-05  0.23370754E-05  0.22032665E-05  0.20535469E-05
  0.18893393E-05  0.17121632E-05  0.15236213E-05  0.13253853E-05  0.11191817E-05
  0.90677748E-06  0.68996497E-06  0.47054745E-06  0.25032444E-06  0.31077374E-07
 -0.18544442E-06 -0.39753729E-06 -0.60355628E-06 -0.80192750E-06 -0.99115976E-06
 -0.11698554E-05 -0.13367202E-05 -0.14905724E-05 -0.16303504E-05 -0.17551200E-05
 -0.18640801E-05 -0.19565669E-05 -0.20320579E-05 -0.20901739E-05 -0.21306801E-05
 -0.21534863E-05 -0.21586453E-05 -0.21463509E-05 -0.21169343E-05 -0.20708597E-05
 -0.20087186E-05 -0.19312237E-05 -0.18392014E-05 -0.17335835E-05 -0.16153987E-05
 -0.14857629E-05 -0.13458691E-05 -0.11969767E-05 -0.10404010E-05 -0.87750124E-06
 -0.70966980E-06 -0.53832020E-06 -0.36487566E-06 -0.19075758E-06 -0.17374107E-07
  0.15389088E-06  0.32168858E-06  0.48471561E-06  0.64172384E-06  0.79152966E-06
  0.93302261E-06  0.10651734E-05  0.11870409E-05  0.12977787E-05  0.13966409E-05
  0.14829860E-05  0.15562815E-05  0.16161065E-05  0.16621534E-05  0.16942291E-05
  0.17122552E-05  0.17162668E-05  0.17064111E-05  0.16829446E-05  0.16462297E-05
  0.15967305E-05  0.15350075E-05  0.14617124E-05  0.13775813E-05  0.12834277E-05
  0.11801353E-05  0.10686500E-05  0.94997124E-06  0.82514349E-06  0.69524743E-06
  0.56139069E-06  0.42469870E-06  0.28630543E-06  0.14734422E-06  0.89387237E-08
 -0.12780601E-06 -0.26181211E-06 -0.39203717E-06 -0.51748219E-06 -0.63719899E-06
 -0.75029719E-06 -0.85595059E-06 -0.95340302E-06 -0.10419735E-05 -0.11210608E-05
 -0.11901471E-05 -0.12488013E-05 -0.12966813E-05 -0.13335358E-05 -0.13592047E-05
 -0.13736199E-05 -0.13768043E-05 -0.13688705E-05 -0.13500190E-05 -0.13205353E-05
 -0.12807867E-05 -0.12312185E-05 -0.11723489E-05 -0.11047647E-05 -0.10291152E-05
 -0.94610665E-06 -0.85649546E-06 -0.76108190E-06 -0.66070303E-06 -0.55622549E-06
 -0.44853829E-06 -0.33854538E-06 -0.22715822E-06 -0.11528843E-06 -0.38404411E-08
  0.10629562E-06  0.21425090E-06  0.31918452E-06  0.42028997E-06  0.51680114E-06
  0.60799800E-06  0.69321177E-06  0.77182969E-06  0.84329921E-06  0.90713176E-06
  0.96290585E-06  0.10102696E-05  0.10489429E-05  0.10787186E-05  0.10994632E-05
  0.11111175E-05  0.11136958E-05  0.11072849E-05  0.10920428E-05  0.10681964E-05
  0.10360388E-05  0.99592652E-06  0.94827541E-06  0.89355703E-06  0.83229400E-06
  0.76505527E-06  0.69245101E-06  0.61512727E-06  0.53376034E-06  0.44905102E-06
  0.36171869E-06  0.27249536E-06  0.18211963E-06  0.91330735E-07  0.86259610E-09
 atomic pseudo charge-density
  0.60000000E+01  0.59880172E+01  0.59522340E+01  0.58931406E+01  0.58115382E+01
  0.57085152E+01  0.55854165E+01  0.54438069E+01  0.52854296E+01  0.51121626E+01
  0.49259748E+01  0.47288831E+01  0.45229115E+01  0.43100549E+01  0.40922464E+01
  0.38713305E+01  0.36490406E+01  0.34269829E+01  0.32066243E+01  0.29892848E+01
  0.27761351E+01  0.25681961E+01  0.23663428E+01  0.21713091E+01  0.19836957E+01
  0.18039783E+01  0.16325172E+01  0.14695672E+01  0.13152874E+01  0.11697518E+01
  0.10329587E+01  0.90484008E+00  0.78527059E+00  0.67407587E+00  0.57104022E+00
  0.47591364E+00  0.38841836E+00  0.30825458E+00  0.23510580E+00  0.16864342E+00
  0.10853094E+00  0.54427588E-01  0.59914789E-02 -0.37117584E-01 -0.75235760E-01
 -0.10869315E+00 -0.13781209E+00 -0.16290578E+00 -0.18427711E+00 -0.20221776E+00
 -0.21700752E+00 -0.22891376E+00 -0.23819112E+00 -0.24508124E+00 -0.24981276E+00
 -0.25260131E+00 -0.25364962E+00 -0.25314777E+00 -0.25127346E+00 -0.24819227E+00
 -0.24405811E+00 -0.23901361E+00 -0.23319052E+00 -0.22671019E+00 -0.21968406E+00
 -0.21221411E+00 -0.20439335E+00 -0.19630631E+00 -0.18802949E+00 -0.17963189E+00
 -0.17117540E+00 -0.16271529E+00 -0.15430067E+00 -0.14597484E+00 -0.13777577E+00
 -0.12973644E+00 -0.12188525E+00 -0.11424634E+00 -0.10683997E+00 -0.99682801E-01
 -0.92788244E-01 -0.86166711E-01 -0.79825906E-01 -0.73771081E-01 -0.68005271E-01
 -0.62529526E-01 -0.57343119E-01 -0.52443743E-01 -0.47827698E-01 -0.43490061E-01
 -0.39424845E-01 -0.35625146E-01 -0.32083279E-01 -0.28790907E-01 -0.25739150E-01
 -0.22918701E-01 -0.20319911E-01 -0.17932891E-01 -0.15747580E-01 -0.13753828E-01
 -0.11941457E-01 -0.10300321E-01 -0.88203613E-02 -0.74916511E-02 -0.63044385E-02
 -0.52491836E-02 -0.43165897E-02 -0.34976310E-02 -0.27835759E-02 -0.21660068E-02
 -0.16368355E-02 -0.11883163E-02 -0.81305554E-03 -0.50401828E-03 -0.25453295E-03
 -0.58293155E-04  0.90642405E-04  0.19785194E-03  0.26855436E-03  0.30761456E-03
  0.31955018E-03  0.30853948E-03  0.27843046E-03  0.23275074E-03  0.17471842E-03
  0.10725352E-03  0.32990041E-04 -0.45711472E-04 -0.12675108E-03 -0.20827625E-03
 -0.28866852E-03 -0.36653003E-03 -0.44067003E-03 -0.51009141E-03 -0.57397738E-03
 -0.63167825E-03 -0.68269847E-03 -0.72668392E-03 -0.76340944E-03 -0.79276687E-03
 -0.81475323E-03 -0.82945956E-03 -0.83705999E-03 -0.83780137E-03 -0.83199338E-03
 -0.81999909E-03 -0.80222601E-03 -0.77911777E-03 -0.75114611E-03 -0.71880361E-03
 -0.68259681E-03 -0.64303987E-03 -0.60064878E-03 -0.55593604E-03 -0.50940588E-03
 -0.46154991E-03 -0.41284334E-03 -0.36374156E-03 -0.31467724E-03 -0.26605785E-03
 -0.21826357E-03 -0.17164561E-03 -0.12652494E-03 -0.83191304E-04 -0.41902642E-04
 -0.28847887E-05  0.33668525E-04  0.67595400E-04  0.98765246E-04  0.12707803E-03
  0.15246333E-03  0.17487917E-03  0.19431076E-03  0.21076900E-03  0.22428895E-03
  0.23492815E-03  0.24276486E-03  0.24789627E-03  0.25043661E-03  0.25051527E-03
  0.24827492E-03  0.24386958E-03  0.23746275E-03  0.22922554E-03  0.21933490E-03
  0.20797182E-03  0.19531966E-03  0.18156253E-03  0.16688372E-03  0.15146431E-03
  0.13548177E-03  0.11910872E-03  0.10251176E-03  0.85850482E-04  0.69276471E-04
  0.52932528E-04  0.36951940E-04  0.21457891E-04  0.65629673E-05 -0.76312191E-05
 -0.21034305E-04 -0.33567348E-04 -0.45162897E-04 -0.55764974E-04 -0.65328958E-04
 -0.73821387E-04 -0.81219689E-04 -0.87511823E-04 -0.92695873E-04 -0.96779561E-04
 -0.99779724E-04 -0.10172173E-03 -0.10263886E-03 -0.10257165E-03 -0.10156722E-03
 -0.99678568E-04 -0.96963831E-04 -0.93485592E-04 -0.89310129E-04 -0.84506699E-04
 -0.79146818E-04 -0.73303560E-04 -0.67050873E-04 -0.60462917E-04 -0.53613434E-04
 -0.46575144E-04 -0.39419179E-04 -0.32214557E-04 -0.25027686E-04 -0.17921925E-04
 -0.10957174E-04 -0.41895254E-05  0.23290541E-05  0.85509831E-05  0.14433284E-04
  0.19937751E-04  0.25031076E-04  0.29684924E-04  0.33875971E-04  0.37585889E-04
  0.40801303E-04  0.43513697E-04  0.45719293E-04  0.47418887E-04  0.48617663E-04
  0.49324971E-04  0.49554078E-04  0.49321908E-04  0.48648742E-04  0.47557925E-04
  0.46075536E-04  0.44230068E-04  0.42052085E-04  0.39573882E-04  0.36829143E-04
  0.33852602E-04  0.30679699E-04  0.27346256E-04  0.23888151E-04  0.20341012E-04
  0.16739914E-04  0.13119105E-04  0.95117384E-05  0.59496275E-05  0.24630228E-05
 -0.91959319E-06 -0.41716864E-05 -0.72688302E-05 -0.10188840E-04 -0.12911886E-04
 -0.15420578E-04 -0.17700031E-04 -0.19737905E-04 -0.21524424E-04 -0.23052369E-04
 -0.24317050E-04 -0.25316264E-04 -0.26050223E-04 -0.26521475E-04 -0.26734796E-04
 -0.26697076E-04 -0.26417189E-04 -0.25905844E-04 -0.25175438E-04 -0.24239883E-04
 -0.23114443E-04 -0.21815550E-04 -0.20360627E-04 -0.18767899E-04 -0.17056215E-04
 -0.15244856E-04 -0.13353358E-04 -0.11401332E-04 -0.94082908E-05 -0.73934812E-05
 -0.53757252E-05 -0.33732694E-05 -0.14036436E-05  0.51646965E-06  0.23713541E-05
  0.41463669E-05  0.58280331E-05  0.74041275E-05  0.88637425E-05  0.10197343E-04
  0.11396809E-04  0.12455460E-04  0.13368074E-04  0.14130886E-04  0.14741579E-04
  0.15199256E-04  0.15504413E-04  0.15658886E-04  0.15665797E-04  0.15529491E-04
  0.15255458E-04  0.14850253E-04  0.14321405E-04  0.13677326E-04  0.12927206E-04
  0.12080915E-04  0.11148892E-04  0.10142039E-04  0.90716113E-05  0.79491068E-05
  0.67861592E-05  0.55944307E-05  0.43855088E-05  0.31708056E-05  0.19614625E-05
  0.76825876E-06 -0.39847291E-06 -0.15289258E-05 -0.26138908E-05 -0.36448220E-05
 -0.46138930E-05 -0.55140474E-05 -0.63390394E-05 -0.70834675E-05 -0.77427989E-05
 -0.83133866E-05 -0.87924771E-05 -0.91782116E-05 -0.94696177E-05 -0.96665947E-05
 -0.97698911E-05 -0.97810755E-05 -0.97025009E-05 -0.95372629E-05 -0.92891529E-05
 -0.89626062E-05 -0.85626454E-05 -0.80948209E-05 -0.75651474E-05 -0.69800387E-05
 -0.63462402E-05 -0.56707605E-05 -0.49608019E-05 -0.42236918E-05 -0.34668138E-05
 -0.26975410E-05 -0.19231702E-05 -0.11508590E-05 -0.38756538E-06  0.36000927E-06
  0.10854734E-05  0.17827947E-05  0.24463449E-05  0.30709399E-05  0.36518754E-05
  0.41849565E-05  0.46665233E-05  0.50934698E-05  0.54632587E-05  0.57739299E-05
  0.60241039E-05  0.62129805E-05  0.63403313E-05  0.64064888E-05  0.64123292E-05
  0.63592519E-05  0.62491546E-05  0.60844040E-05  0.58678040E-05  0.56025598E-05
  0.52922401E-05  0.49407362E-05  0.45522198E-05  0.41310989E-05  0.36819728E-05
  0.32095867E-05  0.27187851E-05  0.22144666E-05  0.17015386E-05  0.11848727E-05
  0.66926242E-06  0.15938126E-06 -0.34025605E-06 -0.82533070E-06 -0.12917541E-05
 -0.17356993E-05 -0.21536297E-05 -0.25423242E-05 -0.28988990E-05 -0.32208259E-05
 -0.35059475E-05 -0.37524879E-05 -0.39590604E-05 -0.41246713E-05 -0.42487202E-05
 -0.43309968E-05 -0.43716739E-05 -0.43712980E-05 -0.43307755E-05 -0.42513573E-05
 -0.41346197E-05 -0.39824432E-05 -0.37969890E-05 -0.35806733E-05 -0.33361403E-05
 -0.30662332E-05 -0.27739643E-05 -0.24624845E-05 -0.21350515E-05 -0.17949984E-05
 -0.14457020E-05 -0.10905511E-05 -0.73291618E-06 -0.37611884E-06 -0.23403101E-07
  0.32209237E-06  0.65736038E-06  0.97954965E-06  0.12859874E-05  0.15741996E-05
  0.18419295E-05  0.20871535E-05  0.23080943E-05  0.25032325E-05  0.26713144E-05
  0.28113585E-05  0.29226584E-05  0.30047839E-05  0.30575790E-05  0.30811580E-05
  0.30758988E-05  0.30424343E-05  0.29816415E-05  0.28946287E-05  0.27827206E-05
  0.26474423E-05  0.24905012E-05  0.23137681E-05  0.21192569E-05  0.19091036E-05
  0.16855442E-05  0.14508929E-05  0.12075194E-05  0.95782608E-06  0.70422598E-06
  0.44912034E-06  0.19487722E-06 -0.56189390E-07 -0.30183952E-06 -0.53992615E-06
 -0.76841285E-06 -0.98539023E-06 -0.11890907E-05 -0.13779021E-05 -0.15503788E-05
 -0.17052524E-05 -0.18414392E-05 -0.19580470E-05 -0.20543793E-05 -0.21299382E-05
 -0.21844246E-05 -0.22177380E-05 -0.22299731E-05 -0.22214152E-05 -0.21925345E-05
 -0.21439781E-05 -0.20765607E-05 -0.19912543E-05 -0.18891761E-05 -0.17715761E-05
 -0.16398230E-05 -0.14953894E-05 -0.13398367E-05 -0.11747994E-05 -0.10019684E-05
 -0.82307495E-06 -0.63987401E-06 -0.45412786E-06 -0.26758988E-06 -0.81988762E-07
  0.10098682E-06  0.27970285E-06  0.45259389E-06  0.61817614E-06  0.77505944E-06
  0.92195832E-06  0.10577018E-05  0.11812421E-05  0.12916619E-05  0.13881804E-05
  0.14701581E-05  0.15371002E-05  0.15886581E-05  0.16246306E-05  0.16449628E-05
  0.16497440E-05  0.16392046E-05  0.16137113E-05  0.15737614E-05  0.15199760E-05
  0.14530922E-05  0.13739544E-05  0.12835045E-05  0.11827720E-05  0.10728626E-05
  0.95494709E-06  0.83024958E-06  0.70003516E-06  0.56559779E-06  0.42824795E-06
  0.28930035E-06  0.15006189E-06  0.11819786E-07 -0.12416981E-06 -0.25669282E-06
 -0.38458759E-06 -0.50675464E-06 -0.62216568E-06 -0.72987181E-06 -0.82901087E-06
 -0.91881386E-06 -0.99861042E-06 -0.10678333E-05 -0.11260219E-05 -0.11728246E-05
 -0.12080003E-05 -0.12314186E-05 -0.12430592E-05 -0.12430106E-05 -0.12314670E-05
 -0.12087252E-05 -0.11751796E-05 -0.11313179E-05 -0.10777142E-05 -0.10150229E-05
 -0.94397109E-06 -0.86535089E-06 -0.78001100E-06 -0.68884812E-06 -0.59279784E-06
 -0.49282553E-06 -0.38991694E-06 -0.28506889E-06 -0.17927992E-06 -0.73541106E-07
  0.31172866E-07  0.13391242E-06  0.23376136E-06  0.32984478E-06  0.42133638E-06
  0.50746529E-06  0.58752227E-06  0.66086523E-06  0.72692406E-06  0.78520470E-06
  0.83529250E-06  0.87685475E-06  0.90964247E-06  0.93349133E-06  0.94832190E-06
  0.95413899E-06  0.95103031E-06  0.93916437E-06  0.91878768E-06  0.89022126E-06
  0.85385654E-06  0.81015068E-06  0.75962136E-06  0.70284105E-06  0.64043096E-06
  0.57305456E-06  0.50141083E-06  0.42622729E-06  0.34825290E-06  0.26825084E-06
  0.18699127E-06  0.10524418E-06  0.23772259E-07 -0.56675935E-07 -0.13537269E-06
 -0.21161748E-06 -0.28474301E-06 -0.35412086E-06 -0.41916663E-06 -0.47934468E-06
 -0.53417233E-06 -0.58322349E-06 -0.62613171E-06 -0.66259268E-06 -0.69236609E-06
 -0.71527689E-06 -0.73121592E-06 -0.74013993E-06 -0.74207102E-06 -0.73709542E-06
 -0.72536180E-06 -0.70707895E-06 -0.68251297E-06 -0.65198396E-06 -0.61586234E-06
 -0.57456463E-06 -0.52854898E-06 -0.47831032E-06 -0.42437531E-06 -0.36729696E-06
 -0.30764921E-06 -0.24602134E-06 -0.18301229E-06 -0.11922501E-06 -0.55260890E-07
  0.82857942E-08  0.70833234E-07  0.13181727E-06  0.19069632E-06  0.24695606E-06
  0.30011376E-06  0.34972226E-06  0.39537360E-06  0.43670220E-06  0.47338766E-06
  0.50515698E-06  0.53178649E-06  0.55310316E-06  0.56898548E-06  0.57936386E-06
  0.58422052E-06  0.58358890E-06  0.57755269E-06  0.56624429E-06  0.54984291E-06
  0.52857231E-06  0.50269803E-06  0.47252442E-06  0.43839126E-06  0.40067014E-06
  0.35976059E-06  0.31608602E-06  0.27008944E-06  0.22222914E-06  0.17297427E-06
  0.12280029E-06  0.72184593E-07  0.21601997E-07 -0.28479555E-07 -0.77603225E-07
 -0.12532734E-06 -0.17122927E-06 -0.21490903E-06 -0.25599269E-06 -0.29413546E-06
 -0.32902445E-06 -0.36038114E-06 -0.38796349E-06 -0.41156764E-06 -0.43102929E-06
 -0.44622468E-06 -0.45707119E-06 -0.46352750E-06 -0.46559346E-06 -0.46330952E-06
 -0.45675578E-06 -0.44605076E-06 -0.43134974E-06 -0.41284289E-06 -0.39075297E-06
 -0.36533290E-06 -0.33686301E-06 -0.30564805E-06 -0.27201409E-06 -0.23630518E-06
 -0.19888000E-06 -0.16010829E-06 -0.12036732E-06 -0.80038300E-07 -0.39502816E-07
  0.86071293E-09  0.40680476E-07  0.79594620E-07  0.11725446E-06  0.15332752E-06
  0.18750039E-06  0.21948139E-06  0.24900295E-06  0.27582377E-06  0.29973072E-06
  0.32054041E-06  0.33810054E-06  0.35229087E-06  0.36302388E-06  0.37024524E-06
  0.37393379E-06  0.37410135E-06  0.37079219E-06  0.36408216E-06  0.35407761E-06
  0.34091402E-06  0.32475435E-06  0.30578716E-06  0.28422461E-06  0.26030011E-06
  0.23426595E-06  0.20639070E-06  0.17695651E-06  0.14625635E-06  0.11459117E-06
  0.82266971E-07  0.49591969E-07  0.16873675E-07 -0.15583917E-07 -0.47483103E-07
 -0.78535138E-07 -0.10846279E-06 -0.13700277E-06 -0.16390796E-06 -0.18894953E-06
 -0.21191879E-06 -0.23262888E-06 -0.25091624E-06 -0.26664178E-06 -0.27969191E-06
 -0.28997924E-06 -0.29744307E-06 -0.30204960E-06 -0.30379192E-06 -0.30268976E-06
 -0.29878893E-06 -0.29216058E-06 -0.28290025E-06 -0.27112667E-06 -0.25698038E-06
 -0.24062212E-06 -0.22223115E-06 -0.20200333E-06 -0.18014910E-06 -0.15689137E-06
 -0.13246330E-06 -0.10710599E-06 -0.81066191E-07 -0.54593933E-07 -0.27940169E-07
 -0.13544501E-08  0.24917371E-07  0.50635365E-07  0.75567678E-07  0.99492573E-07
  0.12220036E-06  0.14349519E-06  0.16319670E-06  0.18114147E-06  0.19718439E-06
  0.21119969E-06  0.22308195E-06  0.23274679E-06  0.24013139E-06  0.24519483E-06
  0.24791821E-06  0.24830452E-06  0.24637839E-06  0.24218557E-06  0.23579227E-06
  0.22728432E-06  0.21676608E-06  0.20435931E-06  0.19020183E-06  0.17444599E-06
  0.15725718E-06  0.13881205E-06  0.11929683E-06  0.98905410E-07  0.77837512E-07
  0.56296745E-07  0.34488679E-07  0.12618922E-07 -0.91087878E-08 -0.30494443E-07
 -0.51343576E-07 -0.71468993E-07 -0.90692421E-07 -0.10884606E-06 -0.12577399E-06
 -0.14133350E-06 -0.15539627E-06 -0.16784931E-06 -0.17859594E-06 -0.18755639E-06
 -0.19466841E-06 -0.19988761E-06 -0.20318768E-06 -0.20456038E-06 -0.20401546E-06
 -0.20158035E-06 -0.19729967E-06 -0.19123461E-06 -0.18346225E-06 -0.17407456E-06
 -0.16317743E-06 -0.15088954E-06 -0.13734107E-06 -0.12267239E-06 -0.10703265E-06
 -0.90578251E-07 -0.73471380E-07 -0.55878385E-07 -0.37968212E-07 -0.19910806E-07
 -0.18755259E-08  0.15970421E-07  0.33463498E-07  0.50445317E-07  0.66764041E-07
  0.82275722E-07  0.96845540E-07  0.11034895E-06  0.12267271E-06  0.13371582E-06
  0.14339030E-06  0.15162186E-06  0.15835045E-06  0.16353063E-06  0.16713184E-06
  0.16913852E-06  0.16955005E-06  0.16838065E-06  0.16565900E-06  0.16142788E-06
  0.15574360E-06  0.14867529E-06  0.14030415E-06  0.13072255E-06  0.12003305E-06
  0.10834734E-06  0.95785087E-07  0.82472768E-07  0.68542387E-07  0.54130211E-07
  0.39375451E-07  0.24418947E-07  0.94018372E-08 -0.55357485E-08 -0.20255977E-07
 -0.34624564E-07 -0.48511977E-07 -0.61794586E-07 -0.74355740E-07 -0.86086772E-07
 -0.96887921E-07 -0.10666915E-06 -0.11535088E-06 -0.12286461E-06 -0.12915342E-06
 -0.13417240E-06 -0.13788889E-06 -0.14028268E-06 -0.14134607E-06 -0.14108375E-06
 -0.13951270E-06 -0.13666180E-06 -0.13257154E-06 -0.12729344E-06 -0.12088947E-06
 -0.11343138E-06 -0.10499991E-06 -0.95683961E-07 -0.85579653E-07 -0.74789389E-07
 -0.63420819E-07 -0.51585789E-07 -0.39399260E-07 -0.26978208E-07 -0.14440521E-07
 -0.19038897E-08  0.10515272E-07  0.22702899E-07  0.34548304E-07  0.45945165E-07
  0.56792469E-07  0.66995384E-07  0.76466078E-07  0.85124454E-07  0.92898809E-07
  0.99726410E-07  0.10555398E-06  0.11033809E-06  0.11404545E-06  0.11665313E-06
  0.11814862E-06  0.11852990E-06  0.11780526E-06  0.11599321E-06  0.11312211E-06
  0.10922988E-06  0.10436349E-06  0.98578450E-07  0.91938214E-07  0.84513491E-07
  0.76381524E-07  0.67625299E-07  0.58332718E-07  0.48595732E-07  0.38509445E-07
  0.28171202E-07  0.17679658E-07  0.71338540E-08 -0.33677047E-08 -0.13727959E-07
 -0.23852179E-07 -0.33648817E-07 -0.43030324E-07 -0.51913917E-07 -0.60222299E-07
 -0.67884319E-07 -0.74835563E-07 -0.81018884E-07 -0.86384855E-07 -0.90892149E-07
 -0.94507832E-07 -0.97207587E-07 -0.98975848E-07 -0.99805850E-07 -0.99699605E-07
 -0.98667791E-07 -0.96729561E-07 -0.93912279E-07 -0.90251183E-07 -0.85788975E-07
 -0.80575348E-07 -0.74666455E-07 -0.68124320E-07 -0.61016202E-07 -0.53413921E-07
 -0.45393142E-07 -0.37032635E-07 -0.28413514E-07 -0.19618458E-07 -0.10730935E-07
 -0.18344113E-08  0.69884133E-08  0.15656371E-07  0.24090557E-07  0.32215045E-07
  0.39957552E-07  0.47250077E-07  0.54029486E-07  0.60238046E-07  0.65823909E-07
  0.70741527E-07  0.74952016E-07  0.78423444E-07  0.81131061E-07  0.83057448E-07
  0.84192615E-07  0.84534007E-07  0.84086462E-07  0.82862085E-07  0.80880065E-07
  0.78166425E-07  0.74753713E-07  0.70680634E-07  0.65991628E-07  0.60736402E-07
  0.54969417E-07  0.48749333E-07  0.42138426E-07  0.35201972E-07  0.28007614E-07
  0.20624713E-07  0.13123682E-07  0.55753301E-08 -0.19498024E-08 -0.93820929E-08
 -0.16653473E-07 -0.23698044E-07 -0.30452666E-07 -0.36857515E-07 -0.42856604E-07
 -0.48398266E-07 -0.53435586E-07 -0.57926793E-07 -0.61835593E-07 -0.65131451E-07
 -0.67789820E-07 -0.69792306E-07 -0.71126779E-07 -0.71787425E-07 -0.71774734E-07
   17.9523968914998      T
 Non local Part
           0           2   1.13629494093598     
   6.17377536195219        6.86361468384858        6.86361468384858     
   7.62726405911764     
 Reciprocal Space Part
  0.13332014E+03  0.13240184E+03  0.12966104E+03  0.12513983E+03  0.11890753E+03
  0.11105936E+03  0.10171480E+03  0.91015355E+02  0.79122067E+02  0.66212586E+02
  0.52478025E+02  0.38119585E+02  0.23345025E+02  0.83650743E+01 -0.66101803E+01
 -0.21374825E+02 -0.35730526E+02 -0.49489732E+02 -0.62478626E+02 -0.74539759E+02
 -0.85534336E+02 -0.95344094E+02 -0.10387277E+03 -0.11104714E+03 -0.11681753E+03
 -0.12115802E+03 -0.12406601E+03 -0.12556156E+03 -0.12568619E+03 -0.12450136E+03
 -0.12208662E+03 -0.11853755E+03 -0.11396335E+03 -0.10848435E+03 -0.10222938E+03
 -0.95333116E+02 -0.87933337E+02 -0.80168338E+02 -0.72174394E+02 -0.64083386E+02
 -0.56020627E+02 -0.48102924E+02 -0.40436899E+02 -0.33117595E+02 -0.26227390E+02
 -0.19835218E+02 -0.13996107E+02 -0.87510213E+01 -0.41270018E+01 -0.13758307E+00
  0.32165351E+01  0.59465898E+01  0.80746629E+01  0.96324290E+01  0.10659781E+02
  0.11203370E+02  0.11315097E+02  0.11050592E+02  0.10467724E+02  0.96251571E+01
  0.85810002E+01  0.73915672E+01  0.61102694E+01  0.47866591E+01  0.34656370E+01
  0.21868300E+01  0.98414411E+00 -0.11451009E+00 -0.10873239E+01 -0.19185390E+01
 -0.25982500E+01 -0.31220770E+01 -0.34907253E+01 -0.37094535E+01 -0.37874679E+01
 -0.37372672E+01 -0.35739564E+01 -0.33145512E+01 -0.29772924E+01 -0.25809875E+01
 -0.21443949E+01 -0.16856651E+01 -0.12218494E+01 -0.76848350E+00 -0.33925360E+00
  0.54253922E-01  0.40271772E+00  0.69916417E+00  0.93897157E+00  0.11198020E+01
  0.12414691E+01  0.13057499E+01  0.13161523E+01  0.12776475E+01  0.11963789E+01
  0.10793583E+01  0.93416009E+00  0.76862224E+00  0.59056389E+00  0.40752671E+00
 Real Space Part
 -0.60797257E+03 -0.60754490E+03 -0.60626327E+03 -0.60413193E+03 -0.60115784E+03
 -0.59735074E+03 -0.59272296E+03 -0.58728943E+03 -0.58106749E+03 -0.57407679E+03
 -0.56633916E+03 -0.55787842E+03 -0.54872028E+03 -0.53889208E+03 -0.52842271E+03
 -0.51734236E+03 -0.50568238E+03 -0.49347508E+03 -0.48075361E+03 -0.46755171E+03
 -0.45390365E+03 -0.43984402E+03 -0.42540760E+03 -0.41062925E+03 -0.39554382E+03
 -0.38018597E+03 -0.36459019E+03 -0.34879063E+03 -0.33282112E+03 -0.31671506E+03
 -0.30050540E+03 -0.28422465E+03 -0.26790482E+03 -0.25157743E+03 -0.23527353E+03
 -0.21902370E+03 -0.20285806E+03 -0.18680630E+03 -0.17089771E+03 -0.15516119E+03
 -0.13962530E+03 -0.12431827E+03 -0.10926804E+03 -0.94502258E+02 -0.80048312E+02
 -0.65933328E+02 -0.52184172E+02 -0.38827429E+02 -0.25889387E+02 -0.13395988E+02
 -0.13727809E+01  0.10155154E+02  0.21163293E+02  0.31627773E+02  0.41525521E+02
  0.50834398E+02  0.59533368E+02  0.67602678E+02  0.75024068E+02  0.81780987E+02
  0.87858837E+02  0.93245220E+02  0.97930204E+02  0.10190659E+03  0.10517018E+03
  0.10772006E+03  0.10955885E+03  0.11069295E+03  0.11113279E+03  0.11089299E+03
  0.10999257E+03  0.10845502E+03  0.10630843E+03  0.10358544E+03  0.10032325E+03
  0.96563454E+02  0.92351883E+02  0.87738311E+02  0.82776140E+02  0.77521956E+02
  0.72035054E+02  0.66376878E+02  0.60610392E+02  0.54799429E+02  0.49007957E+02
  0.43299364E+02  0.37735686E+02  0.32376867E+02  0.27280018E+02  0.22498707E+02
  0.18082294E+02  0.14075333E+02  0.10517013E+02  0.74407284E+01  0.48736645E+01
  0.28366048E+01  0.13436873E+01  0.40004874E+00  0.19080125E-01  0.00000000E+00
 Reciprocal Space Part
 -0.11160074E+03 -0.11080651E+03 -0.10843609E+03 -0.10452607E+03 -0.99136710E+02
 -0.92350819E+02 -0.84272253E+02 -0.75024038E+02 -0.64746144E+02 -0.53592973E+02
 -0.41730602E+02 -0.29333844E+02 -0.16583177E+02 -0.36616116E+01  0.92484483E+01
  0.21968283E+02  0.34325820E+02  0.46158427E+02  0.57315470E+02  0.67660614E+02
  0.77073799E+02  0.85452879E+02  0.92714891E+02  0.98796935E+02  0.10365666E+03
  0.10727237E+03  0.10964269E+03  0.11078596E+03  0.11073916E+03  0.10955661E+03
  0.10730838E+03  0.10407837E+03  0.99962334E+02  0.95065636E+02  0.89500976E+02
  0.83386037E+02  0.76841147E+02  0.69986985E+02  0.62942378E+02  0.55822237E+02
  0.48735664E+02  0.41784265E+02  0.35060690E+02  0.28647427E+02  0.22615858E+02
  0.17025591E+02  0.11924066E+02  0.73464198E+01  0.33156255E+01 -0.15713979E+00
 -0.30718984E+01 -0.54390808E+01 -0.72785643E+01 -0.86185738E+01 -0.94944753E+01
 -0.99474957E+01 -0.10023402E+02 -0.97711720E+01 -0.92416852E+01 -0.84864668E+01
 -0.75565058E+01 -0.65011720E+01 -0.53672507E+01 -0.41981101E+01 -0.30330109E+01
 -0.19065672E+01 -0.84835936E+00  0.11730131E+00  0.97146117E+00  0.17004744E+01
  0.22958258E+01  0.27538401E+01  0.30752928E+01  0.32649410E+01  0.33309906E+01
  0.32845198E+01  0.31388768E+01  0.29090693E+01  0.26111629E+01  0.22617043E+01
  0.18771819E+01  0.14735370E+01  0.10657336E+01  0.66739549E+00  0.29051418E+00
 -0.54768353E-01 -0.36030325E+00 -0.62000550E+00 -0.82985602E+00 -0.98784050E+00
 -0.10938318E+01 -0.11494243E+01 -0.11577281E+01 -0.11231342E+01 -0.10510581E+01
 -0.94767306E+00 -0.81964149E+00 -0.67385252E+00 -0.51717445E+00 -0.35622792E+00
 Real Space Part
  0.53358436E+03  0.53321404E+03  0.53210424E+03  0.53025858E+03  0.52768301E+03
  0.52438580E+03  0.52037749E+03  0.51567078E+03  0.51028046E+03  0.50422328E+03
  0.49751786E+03  0.49018452E+03  0.48224517E+03  0.47372318E+03  0.46464317E+03
  0.45503094E+03  0.44491327E+03  0.43431777E+03  0.42327277E+03  0.41180715E+03
  0.39995024E+03  0.38773164E+03  0.37518117E+03  0.36232874E+03  0.34920423E+03
  0.33583744E+03  0.32225801E+03  0.30849534E+03  0.29457857E+03  0.28053651E+03
  0.26639762E+03  0.25219000E+03  0.23794137E+03  0.22367907E+03  0.20943007E+03
  0.19522094E+03  0.18107795E+03  0.16702698E+03  0.15309364E+03  0.13930323E+03
  0.12568080E+03  0.11225116E+03  0.99038866E+02  0.86068306E+02  0.73363655E+02
  0.60948897E+02  0.48847824E+02  0.37084016E+02  0.25680821E+02  0.14661318E+02
  0.40482635E+01 -0.61359662E+01 -0.15869461E+02 -0.25130870E+02 -0.33899513E+02
 -0.42155516E+02 -0.49879953E+02 -0.57055015E+02 -0.63664190E+02 -0.69692462E+02
 -0.75126520E+02 -0.79954984E+02 -0.84168639E+02 -0.87760669E+02 -0.90726908E+02
 -0.93066070E+02 -0.94779991E+02 -0.95873844E+02 -0.96356346E+02 -0.96239931E+02
 -0.95540902E+02 -0.94279539E+02 -0.92480162E+02 -0.90171145E+02 -0.87384877E+02
 -0.84157662E+02 -0.80529550E+02 -0.76544098E+02 -0.72248091E+02 -0.67691147E+02
 -0.62925307E+02 -0.58004538E+02 -0.52984182E+02 -0.47920380E+02 -0.42869431E+02
 -0.37887153E+02 -0.33028212E+02 -0.28345462E+02 -0.23889293E+02 -0.19707001E+02
 -0.15842206E+02 -0.12334319E+02 -0.92180442E+01 -0.65230017E+01 -0.42733596E+01
 -0.24876586E+01 -0.11785958E+01 -0.35095468E+00 -0.16739862E-01  0.00000000E+00
 Non local Part
           1           2   1.13629494093598     
   2.29375916931652        3.13456334571211        3.13456334571211     
   4.30026666293712     
 Reciprocal Space Part
  0.00000000E+00  0.34213815E+01  0.67636442E+01  0.99492965E+01  0.12904066E+02
  0.15558420E+02  0.17848986E+02  0.19719838E+02  0.21123618E+02  0.22022477E+02
  0.22388813E+02  0.22205783E+02  0.21467594E+02  0.20179557E+02  0.18357906E+02
  0.16029393E+02  0.13230667E+02  0.10007450E+02  0.64135338E+01  0.25096188E+01
 -0.16379730E+01 -0.59586899E+01 -0.10379209E+02 -0.14824930E+02 -0.19221473E+02
 -0.23496148E+02 -0.27579362E+02 -0.31405936E+02 -0.34916306E+02 -0.38057585E+02
 -0.40784459E+02 -0.43059913E+02 -0.44855765E+02 -0.46152999E+02 -0.46941912E+02
 -0.47222054E+02 -0.47001977E+02 -0.46298815E+02 -0.45137688E+02 -0.43550957E+02
 -0.41577366E+02 -0.39261058E+02 -0.36650531E+02 -0.33797525E+02 -0.30755890E+02
 -0.27580447E+02 -0.24325876E+02 -0.21045641E+02 -0.17791000E+02 -0.14610086E+02
 -0.11547106E+02 -0.86416534E+01 -0.59281473E+01 -0.34354148E+01 -0.11864086E+01
  0.80193350E+00  0.25186917E+01  0.39588366E+01  0.51229797E+01  0.60170133E+01
  0.66516537E+01  0.70419034E+01  0.72064477E+01  0.71670054E+01  0.69476486E+01
  0.65741111E+01  0.60731020E+01  0.54716401E+01  0.47964242E+01  0.40732523E+01
  0.33265007E+01  0.25786726E+01  0.18500227E+01  0.11582618E+01  0.51834498E+00
 -0.57657300E-01 -0.56060769E+00 -0.98427311E+00 -0.13252251E+01 -0.15826761E+01
 -0.17582608E+01 -0.18557714E+01 -0.18808569E+01 -0.18406976E+01 -0.17436644E+01
 -0.15989735E+01 -0.14163455E+01 -0.12056797E+01 -0.97674853E+00 -0.73892248E+00
 -0.50092779E+00 -0.27064366E+00 -0.54940504E-01  0.14043861E+00  0.31095339E+00
  0.45329955E+00  0.56540205E+00  0.64637161E+00  0.69642847E+00  0.71679818E+00
 Real Space Part
  0.00000000E+00 -0.68347144E+01 -0.13655621E+02 -0.20448859E+02 -0.27200458E+02
 -0.33896295E+02 -0.40522045E+02 -0.47063146E+02 -0.53504772E+02 -0.59831808E+02
 -0.66028845E+02 -0.72080180E+02 -0.77969829E+02 -0.83681552E+02 -0.89198888E+02
 -0.94505211E+02 -0.99583783E+02 -0.10441783E+03 -0.10899062E+03 -0.11328557E+03
 -0.11728631E+03 -0.12097684E+03 -0.12434161E+03 -0.12736564E+03 -0.13003467E+03
 -0.13233524E+03 -0.13425485E+03 -0.13578210E+03 -0.13690676E+03 -0.13761995E+03
 -0.13791423E+03 -0.13778370E+03 -0.13722416E+03 -0.13623317E+03 -0.13481013E+03
 -0.13295643E+03 -0.13067548E+03 -0.12797278E+03 -0.12485599E+03 -0.12133498E+03
 -0.11742185E+03 -0.11313097E+03 -0.10847896E+03 -0.10348472E+03 -0.98169392E+02
 -0.92556304E+02 -0.86670950E+02 -0.80540900E+02 -0.74195716E+02 -0.67666842E+02
 -0.60987474E+02 -0.54192412E+02 -0.47317888E+02 -0.40401372E+02 -0.33481353E+02
 -0.26597099E+02 -0.19788397E+02 -0.13095261E+02 -0.65576245E+01 -0.21501225E+00
  0.58938125E+01  0.11731215E+02  0.17261072E+02  0.22449163E+02  0.27263574E+02
  0.31675099E+02  0.35657636E+02  0.39188580E+02  0.42249189E+02  0.44824934E+02
  0.46905808E+02  0.48486604E+02  0.49567131E+02  0.50152374E+02  0.50252599E+02
  0.49883380E+02  0.49065539E+02  0.47825005E+02  0.46192613E+02  0.44203766E+02
  0.41898065E+02  0.39318820E+02  0.36512492E+02  0.33528090E+02  0.30416459E+02
  0.27229586E+02  0.24019808E+02  0.20839056E+02  0.17738056E+02  0.14765563E+02
  0.11967626E+02  0.93868825E+01  0.70619165E+01  0.50267026E+01  0.33100930E+01
  0.19354652E+01  0.92038999E+00  0.27509474E+00  0.11743117E-01  0.00000000E+00
 Reciprocal Space Part
  0.00000000E+00 -0.21234046E+01 -0.41939672E+01 -0.61599523E+01 -0.79718132E+01
 -0.95832265E+01 -0.10952056E+02 -0.12041224E+02 -0.12819475E+02 -0.13262008E+02
 -0.13350976E+02 -0.13075827E+02 -0.12433497E+02 -0.11428435E+02 -0.10072472E+02
 -0.83845407E+01 -0.63902369E+01 -0.41212520E+01 -0.16146795E+01  0.10877837E+01
  0.39407247E+01  0.68959685E+01  0.99035780E+01  0.12912877E+02  0.15873475E+02
  0.18736266E+02  0.21454391E+02  0.23984130E+02  0.26285719E+02  0.28324061E+02
  0.30069336E+02  0.31497477E+02  0.32590524E+02  0.33336841E+02  0.33731194E+02
  0.33774694E+02  0.33474613E+02  0.32844074E+02  0.31901626E+02  0.30670725E+02
  0.29179117E+02  0.27458166E+02  0.25542111E+02  0.23467306E+02  0.21271424E+02
  0.18992676E+02  0.16669040E+02  0.14337527E+02  0.12033495E+02  0.97900242E+01
  0.76373733E+01  0.56025094E+01  0.37087358E+01  0.19754122E+01  0.41777294E+00
 -0.95315714E+00 -0.21305520E+01 -0.31116828E+01 -0.38977326E+01 -0.44935349E+01
 -0.49072458E+01 -0.51499616E+01 -0.52352912E+01 -0.51788987E+01 -0.49980251E+01
 -0.47110042E+01 -0.43367827E+01 -0.38944569E+01 -0.34028349E+01 -0.28800342E+01
 -0.23431223E+01 -0.18078062E+01 -0.12881758E+01 -0.79650336E+00 -0.34310213E+00
  0.63757725E-01  0.41787631E+00  0.71509778E+00  0.95323470E+00  0.11319482E+01
  0.12525897E+01  0.13180121E+01  0.13323547E+01  0.13008135E+01  0.12293995E+01
  0.11246957E+01  0.99361800E+00  0.84318584E+00  0.68030954E+00  0.51159757E+00
  0.34318861E+00  0.18061082E+00  0.28670499E-01 -0.10862896E+00 -0.22813766E+00
 -0.32758028E+00 -0.40554905E+00 -0.46147113E+00 -0.49555311E+00 -0.50870615E+00
 Real Space Part
  0.00000000E+00  0.47024439E+01  0.93967067E+01  0.14074552E+02  0.18727631E+02
  0.23347438E+02  0.27925257E+02  0.32452120E+02  0.36918781E+02  0.41315678E+02
  0.45632926E+02  0.49860300E+02  0.53987242E+02  0.58002870E+02  0.61896003E+02
  0.65655189E+02  0.69268751E+02  0.72724836E+02  0.76011479E+02  0.79116669E+02
  0.82028426E+02  0.84734884E+02  0.87224380E+02  0.89485548E+02  0.91507412E+02
  0.93279489E+02  0.94791884E+02  0.96035397E+02  0.97001618E+02  0.97683028E+02
  0.98073094E+02  0.98166361E+02  0.97958541E+02  0.97446597E+02  0.96628821E+02
  0.95504904E+02  0.94076002E+02  0.92344793E+02  0.90315526E+02  0.87994063E+02
  0.85387909E+02  0.82506235E+02  0.79359889E+02  0.75961396E+02  0.72324950E+02
  0.68466393E+02  0.64403175E+02  0.60154313E+02  0.55740322E+02  0.51183150E+02
  0.46506075E+02  0.41733611E+02  0.36891376E+02  0.32005961E+02  0.27104769E+02
  0.22215846E+02  0.17367692E+02  0.12589052E+02  0.79086942E+01  0.33551739E+01
 -0.10434220E+01 -0.52597399E+01 -0.92674361E+01 -0.13041462E+02 -0.16558354E+02
 -0.19796527E+02 -0.22736563E+02 -0.25361497E+02 -0.27657083E+02 -0.29612055E+02
 -0.31218348E+02 -0.32471311E+02 -0.33369864E+02 -0.33916622E+02 -0.34117979E+02
 -0.33984135E+02 -0.33529059E+02 -0.32770399E+02 -0.31729346E+02 -0.30430403E+02
 -0.28901119E+02 -0.27171757E+02 -0.25274895E+02 -0.23245003E+02 -0.21117936E+02
 -0.18930447E+02 -0.16719617E+02 -0.14522322E+02 -0.12374660E+02 -0.10311403E+02
 -0.83654703E+01 -0.65674237E+01 -0.49450018E+01 -0.35227210E+01 -0.23215029E+01
 -0.13584161E+01 -0.64643333E+00 -0.19334234E+00 -0.82513639E-02  0.00000000E+00
 Non local Part
           2           1   1.13629494093598     
   4.03316078884357     
 Reciprocal Space Part
  0.00000000E+00  0.17326636E-01  0.68978445E-01  0.15397766E+00  0.27071629E+00
  0.41698809E+00  0.59003233E+00  0.78658840E+00  0.10029602E+01  0.12350887E+01
  0.14786315E+01  0.17290472E+01  0.19816832E+01  0.22318650E+01  0.24749850E+01
  0.27065892E+01  0.29224595E+01  0.31186908E+01  0.32917608E+01  0.34385907E+01
  0.35565972E+01  0.36437333E+01  0.36985174E+01  0.37200517E+01  0.37080281E+01
  0.36627224E+01  0.35849768E+01  0.34761728E+01  0.33381923E+01  0.31733711E+01
  0.29844440E+01  0.27744836E+01  0.25468340E+01  0.23050409E+01  0.20527801E+01
  0.17937852E+01  0.15317763E+01  0.12703922E+01  0.10131254E+01  0.76326265E+00
  0.52383244E+00  0.29755853E+00  0.86822087E-01 -0.10636794E+00 -0.28039581E+00
 -0.43405111E+00 -0.56653209E+00 -0.67744064E+00 -0.76676914E+00 -0.83488008E+00
 -0.88247893E+00 -0.91058142E+00 -0.92047597E+00 -0.91368242E+00 -0.89190824E+00
 -0.85700308E+00 -0.81091296E+00 -0.75563502E+00 -0.69317387E+00 -0.62550039E+00
 -0.55451381E+00 -0.48200772E+00 -0.40964059E+00 -0.33891119E+00 -0.27113922E+00
 -0.20745124E+00 -0.14877194E+00 -0.95820667E-01 -0.49112811E-01 -0.89659134E-02
  0.24490129E-01  0.51299186E-01  0.71661960E-01  0.85916605E-01  0.94517543E-01
  0.98013151E-01  0.97022917E-01  0.92214725E-01  0.84282799E-01  0.73926842E-01
  0.61832827E-01  0.48655792E-01  0.35004969E-01  0.21431444E-01  0.84184920E-02
 -0.36253610E-02 -0.14370577E-01 -0.23568236E-01 -0.31049221E-01 -0.36721180E-01
 -0.40563522E-01 -0.42620756E-01 -0.42994487E-01 -0.41834430E-01 -0.39328764E-01
 -0.35694182E-01 -0.31165949E-01 -0.25988268E-01 -0.20405236E-01 -0.14652590E-01
 Real Space Part
  0.00000000E+00 -0.61772341E-02 -0.24610304E-01 -0.55004730E-01 -0.96874413E-01
 -0.14954860E+00 -0.21218143E+00 -0.28376398E+00 -0.36313842E+00 -0.44901424E+00
 -0.53998611E+00 -0.63455313E+00 -0.73113913E+00 -0.82811374E+00 -0.92381384E+00
 -0.10165651E+01 -0.11047032E+01 -0.11865946E+01 -0.12606569E+01 -0.13253769E+01
 -0.13793292E+01 -0.14211917E+01 -0.14497605E+01 -0.14639627E+01 -0.14628672E+01
 -0.14456945E+01 -0.14118233E+01 -0.13607960E+01 -0.12923226E+01 -0.12062820E+01
 -0.11027221E+01 -0.98185811E+00 -0.84406929E+00 -0.68989414E+00 -0.52002449E+00
 -0.33529817E+00 -0.13669069E+00  0.74693986E-01  0.29763365E+00  0.53079861E+00
  0.77276319E+00  0.10220176E+01  0.12769805E+01  0.15360111E+01  0.17974227E+01
  0.20594952E+01  0.23204881E+01  0.25786542E+01  0.28322517E+01  0.30795579E+01
  0.33188816E+01  0.35485755E+01  0.37670491E+01  0.39727803E+01  0.41643273E+01
  0.43403402E+01  0.44995717E+01  0.46408881E+01  0.47632791E+01  0.48658671E+01
  0.49479166E+01  0.50088419E+01  0.50482145E+01  0.50657696E+01  0.50614111E+01
  0.50352161E+01  0.49874376E+01  0.49185057E+01  0.48290279E+01  0.47197870E+01
  0.45917376E+01  0.44460003E+01  0.42838550E+01  0.41067302E+01  0.39161926E+01
  0.37139330E+01  0.35017505E+01  0.32815356E+01  0.30552512E+01  0.28249114E+01
  0.25925604E+01  0.23602494E+01  0.21300135E+01  0.19038483E+01  0.16836864E+01
  0.14713749E+01  0.12686540E+01  0.10771361E+01  0.89828830E+00  0.73341516E+00
  0.58364545E+00  0.44992099E+00  0.33298740E+00  0.23338989E+00  0.15146937E+00
  0.87365591E-01  0.41018721E-01  0.12103623E-01  0.59402406E-03  0.00000000E+00
 PAW radial sets
         367   1.08082277722336     
(5E20.12)                                
 augmentation charges (non sperical)
 -0.405301730270E+00 -0.463867481712E+00 -0.179745093209E+00 -0.260161862652E+00 -0.882275160110E-01
 -0.463867481712E+00 -0.530946659903E+00 -0.205066666076E+00 -0.296916356715E+00 -0.100282339103E+00
 -0.179745093209E+00 -0.205066666076E+00 -0.807080562124E-01 -0.115407596217E+00 -0.390360894281E-01
 -0.260161862652E+00 -0.296916356715E+00 -0.115407596217E+00 -0.165205108457E+00 -0.553938434358E-01
 -0.882275160110E-01 -0.100282339103E+00 -0.390360894281E-01 -0.553938434358E-01  0.988763150678E-02
 uccopancies in atom
  0.200000000360E+01  0.000000000000E+00  0.000000000000E+00  0.000000000000E+00  0.000000000000E+00
  0.000000000000E+00  0.000000000000E+00  0.000000000000E+00  0.000000000000E+00  0.000000000000E+00
  0.000000000000E+00  0.000000000000E+00  0.133333333602E+01  0.000000000000E+00  0.000000000000E+00
  0.000000000000E+00  0.000000000000E+00  0.000000000000E+00  0.000000000000E+00  0.000000000000E+00
  0.000000000000E+00  0.000000000000E+00  0.000000000000E+00  0.000000000000E+00  0.000000000000E+00
 grid
  0.498607011224E-04  0.514820467356E-04  0.531561144635E-04  0.548846186975E-04  0.566693295772E-04
  0.585120748024E-04  0.604147415052E-04  0.623792781826E-04  0.644076966918E-04  0.665020743107E-04
  0.686645558649E-04  0.708973559245E-04  0.732027610719E-04  0.755831322434E-04  0.780409071471E-04
  0.805786027592E-04  0.831988179019E-04  0.859042359045E-04  0.886976273512E-04  0.915818529192E-04
  0.945598663073E-04  0.976347172616E-04  0.100809554698E-03  0.104087629928E-03  0.107472299986E-03
  0.110967031071E-03  0.114575402093E-03  0.118301108338E-03  0.122147965256E-03  0.126119912364E-03
  0.130221017284E-03  0.134455479904E-03  0.138827636685E-03  0.143341965098E-03  0.148003088208E-03
  0.152815779414E-03  0.157784967332E-03  0.162915740844E-03  0.168213354311E-03  0.173683232952E-03
  0.179330978401E-03  0.185162374443E-03  0.191183392936E-03  0.197400199930E-03  0.203819161979E-03
  0.210446852660E-03  0.217290059307E-03  0.224355789964E-03  0.231651280554E-03  0.239184002299E-03
  0.246961669362E-03  0.254992246756E-03  0.263283958492E-03  0.271845296009E-03  0.280685026865E-03
  0.289812203715E-03  0.299236173587E-03  0.308966587449E-03  0.319013410095E-03  0.329386930350E-03
  0.340097771605E-03  0.351156902698E-03  0.362575649144E-03  0.374365704739E-03  0.386539143529E-03
  0.399108432179E-03  0.412086442740E-03  0.425486465828E-03  0.439322224237E-03  0.453607886995E-03
  0.468358083867E-03  0.483587920343E-03  0.499312993109E-03  0.515549406011E-03  0.532313786556E-03
  0.549623302934E-03  0.567495681603E-03  0.585949225440E-03  0.605002832487E-03  0.624676015302E-03
  0.644988920944E-03  0.665962351602E-03  0.687617785904E-03  0.709977400905E-03  0.733064094805E-03
  0.756901510397E-03  0.781514059277E-03  0.806926946845E-03  0.833166198120E-03  0.860258684387E-03
  0.888232150721E-03  0.917115244394E-03  0.946937544219E-03  0.977729590837E-03  0.100952291799E-02
  0.104235008484E-02  0.107624470925E-02  0.111124150229E-02  0.114737630374E-02  0.118468611878E-02
  0.122320915593E-02  0.126298486615E-02  0.130405398324E-02  0.134645856555E-02  0.139024203910E-02
  0.143544924198E-02  0.148212647033E-02  0.153032152569E-02  0.158008376402E-02  0.163146414620E-02
  0.168451529023E-02  0.173929152511E-02  0.179584894651E-02  0.185424547415E-02  0.191454091120E-02
  0.197679700543E-02  0.204107751254E-02  0.210744826139E-02  0.217597722141E-02  0.224673457225E-02
  0.231979277562E-02  0.239522664951E-02  0.247311344479E-02  0.255353292435E-02  0.263656744476E-02
  0.272230204064E-02  0.281082451169E-02  0.290222551266E-02  0.299659864616E-02  0.309404055853E-02
  0.319465103881E-02  0.329853312091E-02  0.340579318917E-02  0.351654108727E-02  0.363089023073E-02
  0.374895772307E-02  0.387086447572E-02  0.399673533184E-02  0.412669919420E-02  0.426088915714E-02
  0.439944264291E-02  0.454250154239E-02  0.469021236039E-02  0.484272636571E-02  0.500019974599E-02
  0.516279376776E-02  0.533067494149E-02  0.550401519218E-02  0.568299203539E-02  0.586778875905E-02
  0.605859461116E-02  0.625560499357E-02  0.645902166213E-02  0.666905293329E-02  0.688591389743E-02
  0.710982663912E-02  0.734102046458E-02  0.757973213648E-02  0.782620611644E-02  0.808069481535E-02
  0.834345885188E-02  0.861476731936E-02  0.889489806137E-02  0.918413795627E-02  0.948278321098E-02
  0.979113966435E-02  0.101095231003E-01  0.104382595714E-01  0.107776857324E-01  0.111281491853E-01
  0.114900088355E-01  0.118636352588E-01  0.122494110812E-01  0.126477313711E-01  0.130590040430E-01
  0.134836502763E-01  0.139221049457E-01  0.143748170671E-01  0.148422502573E-01  0.153248832088E-01
  0.158232101799E-01  0.163377415008E-01  0.168690040967E-01  0.174175420270E-01  0.179839170422E-01
  0.185687091600E-01  0.191725172587E-01  0.197959596903E-01  0.204396749146E-01  0.211043221521E-01
  0.217905820596E-01  0.224991574273E-01  0.232307738983E-01  0.239861807118E-01  0.247661514704E-01
  0.255714849322E-01  0.264030058291E-01  0.272615657112E-01  0.281480438189E-01  0.290633479831E-01
  0.300084155553E-01  0.309842143673E-01  0.319917437224E-01  0.330320354186E-01  0.341061548056E-01
  0.352152018754E-01  0.363603123892E-01  0.375426590402E-01  0.387634526547E-01  0.400239434321E-01
  0.413254222250E-01  0.426692218614E-01  0.440567185096E-01  0.454893330875E-01  0.469685327175E-01
  0.484958322293E-01  0.500727957111E-01  0.517010381113E-01  0.533822268924E-01  0.551180837385E-01
  0.569103863189E-01  0.587609701079E-01  0.606717302652E-01  0.626446235759E-01  0.646816704554E-01
  0.667849570176E-01  0.689566372117E-01  0.711989350281E-01  0.735141467755E-01  0.759046434333E-01
  0.783728730788E-01  0.809213633950E-01  0.835527242585E-01  0.862696504128E-01  0.890749242278E-01
  0.919714185489E-01  0.949620996395E-01  0.980500302183E-01  0.101238372596E+00  0.104530391914E+00
  0.107929459488E+00  0.111439056259E+00  0.115062776362E+00  0.118804330803E+00  0.122667551260E+00
  0.126656394009E+00  0.130774943973E+00  0.135027418908E+00  0.139418173718E+00  0.143951704922E+00
  0.148632655250E+00  0.153465818406E+00  0.158456143970E+00  0.163608742472E+00  0.168928890623E+00
  0.174422036721E+00  0.180093806225E+00  0.185950007524E+00  0.191996637880E+00  0.198239889571E+00
  0.204686156232E+00  0.211342039403E+00  0.218214355291E+00  0.225310141747E+00  0.232636665476E+00
  0.240201429480E+00  0.248012180737E+00  0.256076918140E+00  0.264403900684E+00  0.273001655927E+00
  0.281878988722E+00  0.291044990234E+00  0.300509047248E+00  0.310280851786E+00  0.320370411030E+00
  0.330788057570E+00  0.341544459987E+00  0.352650633776E+00  0.364117952631E+00  0.375958160087E+00
  0.388183381553E+00  0.400806136722E+00  0.413839352399E+00  0.427296375736E+00  0.441190987901E+00
  0.455537418190E+00  0.470350358603E+00  0.485644978884E+00  0.501436942061E+00  0.517742420485E+00
  0.534578112390E+00  0.551961258995E+00  0.569909662163E+00  0.588441702626E+00  0.607576358813E+00
  0.627333226284E+00  0.647732537797E+00  0.668795184032E+00  0.690542734976E+00  0.712997462024E+00
  0.736182360778E+00  0.760121174600E+00  0.784838418928E+00  0.810359406379E+00  0.836710272675E+00
  0.863918003406E+00  0.892010461665E+00  0.921016416584E+00  0.950965572796E+00  0.981888600855E+00
  0.101381716864E+01  0.104678397380E+01  0.108082277722E+01  0.111596843762E+01  0.115225694721E+01
  0.118972546860E+01  0.122841237284E+01  0.126835727869E+01  0.130960109323E+01  0.135218605372E+01
  0.139615577090E+01  0.144155527358E+01  0.148843105484E+01  0.153683111956E+01  0.158680503365E+01
  0.163840397475E+01  0.169168078469E+01  0.174669002358E+01  0.180348802569E+01  0.186213295713E+01
  0.192268487544E+01  0.198520579108E+01  0.204975973092E+01  0.211641280385E+01  0.218523326842E+01
  0.225629160282E+01  0.232966057699E+01  0.240541532716E+01  0.248363343282E+01  0.256439499615E+01
  0.264778272404E+01  0.273388201281E+01  0.282278103567E+01  0.291457083297E+01  0.300934540550E+01
  0.310720181068E+01  0.320824026205E+01  0.331256423179E+01  0.342028055677E+01  0.353149954792E+01
  0.364633510320E+01  0.376490482427E+01  0.388733013686E+01  0.401373641521E+01  0.414425311038E+01
  0.427901388289E+01  0.441815673952E+01  0.456182417474E+01  0.471016331654E+01  0.486332607718E+01
  0.502146930869E+01  0.518475496358E+01  0.535335026061E+01  0.552742785611E+01  0.570716602075E+01
  0.589274882210E+01  0.608436631319E+01
 aepotential
  0.119609740105E+05  0.121070326365E+05  0.122364822335E+05  0.123483481657E+05  0.124417636288E+05
  0.125159779763E+05  0.125703615470E+05  0.126044204670E+05  0.126178038235E+05  0.126103112621E+05
  0.125818970890E+05  0.125326704386E+05  0.124628980538E+05  0.123730016771E+05  0.122635488832E+05
  0.121352476494E+05  0.119889406261E+05  0.118255908641E+05  0.116462588289E+05  0.114521054412E+05
  0.112443691324E+05  0.110243385370E+05  0.107933562315E+05  0.105527836156E+05  0.103039953940E+05
  0.100483606746E+05  0.978722969306E+04  0.952191469691E+04  0.925369011900E+04  0.898376608628E+04
  0.871329353529E+04  0.844334770869E+04  0.817492688406E+04  0.790894689475E+04  0.764623867542E+04
  0.738754697159E+04  0.713353103312E+04  0.688476539048E+04  0.664174263538E+04  0.640487641924E+04
  0.617450542139E+04  0.595089790540E+04  0.573425652443E+04  0.552472352984E+04  0.532238606222E+04
  0.512728151917E+04  0.493940285353E+04  0.475870374984E+04  0.458510360353E+04  0.441849225413E+04
  0.425873443525E+04  0.410567391410E+04  0.395913729507E+04  0.381893750199E+04  0.368487693730E+04
  0.355675024799E+04  0.343434681031E+04  0.331745306675E+04  0.320585418595E+04  0.309933590617E+04
  0.299768583514E+04  0.290069469675E+04  0.280815709109E+04  0.271987263361E+04  0.263564624620E+04
  0.255528882770E+04  0.247861754732E+04  0.240545611399E+04  0.233563500517E+04  0.226899129832E+04
  0.220536906372E+04  0.214461894384E+04  0.208659836617E+04  0.203117116459E+04  0.197820762907E+04
  0.192758421339E+04  0.187918330496E+04  0.183289316740E+04  0.178860751561E+04  0.174622547321E+04
  0.170565123977E+04  0.166679387477E+04  0.162956712783E+04  0.159388913742E+04  0.155968229854E+04
  0.152687295694E+04  0.149539131517E+04  0.146517113125E+04  0.143614960309E+04  0.140826714320E+04
  0.138146724137E+04  0.135569624565E+04  0.133090328853E+04  0.130704003326E+04  0.128406061646E+04
  0.126192146457E+04  0.124058119752E+04  0.122000047748E+04  0.120014190289E+04  0.118096993904E+04
  0.116245070947E+04  0.114455206430E+04  0.112724331172E+04  0.111049525863E+04  0.109428008075E+04
  0.107857124288E+04  0.106334343301E+04  0.104857250099E+04  0.103423538552E+04  0.102031005579E+04
  0.100677546428E+04  0.993611464249E+03  0.980798796731E+03  0.968319018288E+03  0.956154462794E+03
  0.944288197584E+03  0.932703987846E+03  0.921386250306E+03  0.910320034280E+03  0.899490967002E+03
  0.888885240259E+03  0.878489571817E+03  0.868291180391E+03  0.858277759652E+03  0.848437454757E+03
  0.838758836207E+03  0.829230883385E+03  0.819842961154E+03  0.810584800920E+03  0.801446485362E+03
  0.792418430943E+03  0.783491372117E+03  0.774656348594E+03  0.765904691590E+03  0.757228010610E+03
  0.748618187700E+03  0.740067357380E+03  0.731567909025E+03  0.723112470383E+03  0.714693902498E+03
  0.706305294771E+03  0.697939957739E+03  0.689591418769E+03  0.681253415612E+03  0.672919897186E+03
  0.664585018928E+03  0.656243139532E+03  0.647888823651E+03  0.639516837880E+03  0.631122155719E+03
  0.622699954171E+03  0.614245621449E+03  0.605754755675E+03  0.597223171575E+03  0.588646905704E+03
  0.580022220479E+03  0.571345613389E+03  0.562613824520E+03  0.553823844819E+03  0.544972928578E+03
  0.536058603445E+03  0.527078684990E+03  0.518031290691E+03  0.508914856940E+03  0.499728156987E+03
  0.490470321391E+03  0.481140860077E+03  0.471739687482E+03  0.462267149155E+03  0.452724051853E+03
  0.443111696236E+03  0.433431912134E+03  0.423687097229E+03  0.413880258330E+03  0.404015055655E+03
  0.394095849204E+03  0.384127746847E+03  0.374116653058E+03  0.364069316718E+03  0.353993375557E+03
  0.343897394857E+03  0.333790896235E+03  0.323684371610E+03  0.313589276764E+03  0.303517997339E+03
  0.293483779479E+03  0.283500617247E+03  0.273583089273E+03  0.263746139230E+03  0.254004799921E+03
  0.244373867700E+03  0.234867546962E+03  0.225499102342E+03  0.216280579259E+03  0.207222683339E+03
  0.198334938387E+03  0.189626267045E+03  0.181106139683E+03  0.172786397289E+03  0.164683743051E+03
  0.156822696682E+03  0.149238512659E+03  0.141979276083E+03  0.135106030725E+03  0.128690094443E+03
  0.122806845573E+03  0.117526444388E+03  0.112902891113E+03  0.108963676977E+03  0.105702388745E+03
  0.103075953483E+03  0.101007112533E+03  0.993916714820E+02  0.981092936350E+02  0.970359575872E+02
  0.960556741682E+02  0.950690870108E+02  0.939975680292E+02  0.927830316949E+02  0.913850000989E+02
  0.897767604845E+02  0.879418989602E+02  0.858716939359E+02  0.835632827721E+02  0.810183425304E+02
  0.782420599708E+02  0.752422936752E+02  0.720289030651E+02  0.686132530404E+02  0.650078965712E+02
  0.612264237010E+02  0.572834514557E+02  0.531947214308E+02  0.489772703432E+02  0.446496349078E+02
  0.402320451758E+02  0.357465550807E+02  0.312170411572E+02  0.266689950661E+02  0.221290324283E+02
  0.176240761474E+02  0.131802547400E+02  0.882172716510E+01  0.456991306650E+01  0.443935820359E+00
 -0.353667196973E+01 -0.734613941197E+01 -0.109437654074E+02 -0.142650264686E+02 -0.172180880174E+02
 -0.196930607337E+02 -0.215885892351E+02 -0.228523539371E+02 -0.235209582102E+02 -0.237327685910E+02
 -0.236917710451E+02 -0.235940372730E+02 -0.235668826329E+02 -0.236592427512E+02 -0.238716831374E+02
 -0.241908341153E+02 -0.246084963930E+02 -0.251257616040E+02 -0.257495373604E+02 -0.264875244555E+02
 -0.273446310464E+02 -0.283215099218E+02 -0.294147254703E+02 -0.306177270591E+02 -0.319219838906E+02
 -0.333179270414E+02 -0.347955910069E+02 -0.363449781368E+02 -0.379562144387E+02 -0.396195694669E+02
 -0.413253906925E+02 -0.430639946520E+02 -0.448255300154E+02 -0.465998403746E+02 -0.483763288314E+02
 -0.501438525975E+02 -0.518906791370E+02 -0.536044869621E+02 -0.552725349392E+02 -0.568819441656E+02
 -0.584201607013E+02 -0.598755636752E+02 -0.612381188181E+02 -0.624999356012E+02 -0.636554338431E+02
 -0.647008238333E+02 -0.656326405276E+02 -0.664453881568E+02 -0.671290241158E+02 -0.676678996772E+02
 -0.680431536028E+02 -0.682392792278E+02 -0.682524503056E+02 -0.680954889488E+02 -0.677955136255E+02
 -0.673853815155E+02 -0.668944677303E+02 -0.663436194160E+02 -0.657448787186E+02 -0.651040859383E+02
 -0.644237265591E+02 -0.637049405940E+02 -0.629485813780E+02 -0.621556460862E+02 -0.613273991320E+02
 -0.604653910706E+02 -0.595714488689E+02 -0.586476747490E+02 -0.576964273476E+02 -0.567203097849E+02
 -0.557221320691E+02 -0.547048730026E+02 -0.536716054399E+02 -0.526254370276E+02 -0.515694285827E+02
 -0.505065032067E+02 -0.494393638705E+02 -0.483704080284E+02 -0.473016587724E+02 -0.462347231358E+02
 -0.451707827604E+02 -0.441106334427E+02 -0.430547715121E+02 -0.420035218311E+02 -0.409571910084E+02
 -0.399162245785E+02 -0.388813435855E+02 -0.378536420570E+02 -0.368346334192E+02 -0.358262425738E+02
 -0.348307470788E+02 -0.338506750682E+02 -0.328886696118E+02 -0.319473305437E+02 -0.310290465533E+02
 -0.301358329808E+02 -0.292691932192E+02 -0.284300220720E+02 -0.276185657803E+02 -0.268344453118E+02
 -0.260767384961E+02 -0.253441060550E+02 -0.246349399225E+02 -0.239475112687E+02 -0.232800998261E+02
 -0.226310932649E+02 -0.219990528767E+02 -0.213827477880E+02 -0.207811635135E+02 -0.201934920111E+02
 -0.196191101231E+02 -0.190575521142E+02 -0.185084805263E+02 -0.179716581486E+02 -0.174469227304E+02
 -0.169341651959E+02 -0.164333115416E+02 -0.159443082399E+02 -0.154671107878E+02 -0.150016749623E+02
 -0.145479503429E+02 -0.141058756896E+02
 core charge-density
  0.233347115022E-02  0.248219799624E-02  0.264038593777E-02  0.280863503225E-02  0.298758321888E-02
  0.317790869285E-02  0.338033242698E-02  0.359562084926E-02  0.382458868615E-02  0.406810198142E-02
  0.432708130139E-02  0.460250513757E-02  0.489541351888E-02  0.520691184584E-02  0.553817496015E-02
  0.589045146379E-02  0.626506830249E-02  0.666343562928E-02  0.708705196498E-02  0.753750967292E-02
  0.801650076673E-02  0.852582307081E-02  0.906738675393E-02  0.964322125829E-02  0.102554826466E-01
  0.109064613922E-01  0.115985906369E-01  0.123344549445E-01  0.131167995787E-01  0.139485403337E-01
  0.148327739515E-01  0.157727891574E-01  0.167720783496E-01  0.178343499791E-01  0.189635416595E-01
  0.201638340464E-01  0.214396655298E-01  0.227957477835E-01  0.242370822199E-01  0.257689773978E-01
  0.273970674358E-01  0.291273314856E-01  0.309661143201E-01  0.329201480978E-01  0.349965753630E-01
  0.372029733469E-01  0.395473796379E-01  0.420383192887E-01  0.446848334353E-01  0.474965095020E-01
  0.504835130714E-01  0.536566215009E-01  0.570272593702E-01  0.606075358466E-01  0.644102840581E-01
  0.684491025681E-01  0.727383990456E-01  0.772934362307E-01  0.821303802948E-01  0.872663516984E-01
  0.927194786522E-01  0.985089532868E-01  0.104655090641E+00  0.111179390573E+00  0.118104602717E+00
  0.125454794572E+00  0.133255422862E+00  0.141533408249E+00  0.150317213528E+00  0.159636925386E+00
  0.169524339853E+00  0.180013051514E+00  0.191138546590E+00  0.202938299969E+00  0.215451876258E+00
  0.228721034918E+00  0.242789839553E+00  0.257704771367E+00  0.273514846831E+00  0.290271739563E+00
  0.308029906391E+00  0.326846717578E+00  0.346782591133E+00  0.367901131101E+00  0.390269269725E+00
  0.413957413278E+00  0.439039591382E+00  0.465593609536E+00  0.493701204541E+00  0.523448202464E+00
  0.554924678687E+00  0.588225119556E+00  0.623448585031E+00  0.660698871681E+00  0.700084675265E+00
  0.741719752033E+00  0.785723077791E+00  0.832219003635E+00  0.881337407151E+00  0.933213837736E+00
  0.987989654521E+00  0.104581215529E+01  0.110683469451E+01  0.117121678856E+01  0.123912420585E+01
  0.131072903956E+01  0.138620976034E+01  0.146575124607E+01  0.154954478579E+01  0.163778805434E+01
  0.173068505418E+01  0.182844602062E+01  0.193128728635E+01  0.203943110088E+01  0.215310540022E+01
  0.227254352198E+01  0.239798386064E+01  0.252966945744E+01  0.266784751928E+01  0.281276886066E+01
  0.296468726232E+01  0.312385874026E+01  0.329054071859E+01  0.346499109940E+01  0.364746722289E+01
  0.383822471088E+01  0.403751618701E+01  0.424558986674E+01  0.446268801084E+01  0.468904523609E+01
  0.492488667747E+01  0.517042599658E+01  0.542586323191E+01  0.569138248711E+01  0.596714945500E+01
  0.625330877573E+01  0.654998122939E+01  0.685726076496E+01  0.717521136941E+01  0.750386378319E+01
  0.784321207062E+01  0.819321005691E+01  0.855376764640E+01  0.892474704034E+01  0.930595887631E+01
  0.969715831566E+01  0.100980411097E+02  0.105082396806E+02  0.109273192578E+02  0.113547741162E+02
  0.117900239690E+02  0.122324105720E+02  0.126811946049E+02  0.131355528988E+02  0.135945760871E+02
  0.140572667608E+02  0.145225382181E+02  0.149892138990E+02  0.154560276055E+02  0.159216246059E+02
  0.163845637305E+02  0.168433205626E+02  0.172962918320E+02  0.177418011150E+02  0.181781059414E+02
  0.186034064031E+02  0.190158553504E+02  0.194135702492E+02  0.197946467597E+02  0.201571740754E+02
  0.204992520430E+02  0.208190100537E+02  0.211146276701E+02  0.213843569146E+02  0.216265461107E+02
  0.218396651232E+02  0.220223317977E+02  0.221733393525E+02  0.222916844201E+02  0.223765953837E+02
  0.224275605975E+02  0.224443560244E+02  0.224270717703E+02  0.223761369410E+02  0.222923422048E+02
  0.221768593984E+02  0.220312574843E+02  0.218575141474E+02  0.216580223079E+02  0.214355908347E+02
  0.211934387711E+02  0.209351824232E+02  0.206648147327E+02  0.203866764393E+02  0.201054186523E+02
  0.198259565880E+02  0.195534143876E+02  0.192930611134E+02  0.190502382259E+02  0.188302790603E+02
  0.186384210591E+02  0.184797117572E+02  0.183589097495E+02  0.182803822076E+02  0.182480005993E+02
  0.182650366224E+02  0.183340606484E+02  0.184568450624E+02  0.186342751407E+02  0.188662702278E+02
  0.191517180373E+02  0.194884248879E+02  0.198730845777E+02  0.203012683948E+02  0.207674384427E+02
  0.212649860378E+02  0.217862964193E+02  0.223228404368E+02  0.228652932591E+02  0.234036794942E+02
  0.239275434054E+02  0.244261421482E+02  0.248886591512E+02  0.253044339396E+02  0.256632039048E+02
  0.259553527736E+02  0.261721598751E+02  0.263060437590E+02  0.263507933081E+02  0.263017792516E+02
  0.261561389266E+02  0.259129272953E+02  0.255732276124E+02  0.251402157766E+02  0.246191732904E+02
  0.240174449061E+02  0.233443384454E+02  0.226109659094E+02  0.218300268524E+02  0.210155369823E+02
  0.201825070572E+02  0.193465792591E+02  0.185236302548E+02  0.177293519865E+02  0.169788227176E+02
  0.162860818706E+02  0.156637225784E+02  0.151225155530E+02  0.146710768219E+02  0.143155906635E+02
  0.140595967614E+02  0.139038503587E+02  0.138462633820E+02  0.138819332650E+02  0.140032683126E+02
  0.142002123084E+02  0.144605628812E+02  0.147703661753E+02  0.151143637760E+02  0.154764700788E+02
  0.158402640567E+02  0.161894822928E+02  0.165084994143E+02  0.167827803391E+02  0.169992880232E+02
  0.171468314101E+02  0.172163408970E+02  0.172010623507E+02  0.170966650590E+02  0.169012633456E+02
  0.166153556355E+02  0.162416882258E+02  0.157850538027E+02  0.152520367634E+02  0.146507186495E+02
  0.139903575061E+02  0.132810547683E+02  0.125334225221E+02  0.117582626680E+02  0.109662679595E+02
  0.101677529735E+02  0.937242114317E+01  0.858917231196E+01  0.782595265889E+01  0.708964819638E+01
  0.638602066149E+01  0.571968384476E+01  0.509411691599E+01  0.451170981162E+01  0.397383625717E+01
  0.348094789054E+01  0.303268317013E+01  0.262798456538E+01  0.226521800351E+01  0.194228970073E+01
  0.165675725991E+01  0.140593377645E+01  0.118698477024E+01  0.997017339742E+00  0.833159392744E+00
  0.692625453128E+00  0.572767292331E+00  0.471107805186E+00  0.385360305466E+00  0.313437400471E+00
  0.253451723117E+00  0.203711211889E+00  0.162710693569E+00  0.129121010586E+00  0.101776609421E+00
  0.796622930107E-01  0.618996806998E-01  0.477337869701E-01  0.365200176660E-01  0.277117891071E-01
  0.208489015311E-01  0.155467424512E-01  0.114863554853E-01  0.840538232380E-02  0.608986718530E-02
  0.436690064696E-02  0.309807144818E-02  0.217368867312E-02  0.150773176296E-02  0.103348150522E-02
  0.699781386377E-03  0.467875601388E-03  0.308767798062E-03  0.201043532453E-03  0.129099560764E-03
  0.817245285825E-04  0.509782585048E-04  0.313205041991E-04  0.189444968809E-04  0.112755896553E-04
  0.660053608659E-05  0.379816933254E-05  0.214725961633E-05  0.119194911443E-05  0.649275564988E-06
  0.346833657428E-06  0.181570188687E-06  0.930888097710E-07  0.467054387259E-07  0.229156227525E-07
  0.109864617440E-07  0.514286330779E-08  0.234867929426E-08  0.104557837096E-08  0.453354503961E-09
  0.191290583853E-09  0.784766415488E-10  0.312741548462E-10  0.120955583502E-10  0.453572841124E-11
  0.164748908891E-11  0.579046173683E-12  0.196727964981E-12  0.645377660077E-13  0.204208658028E-13
  0.622512818218E-14  0.182608606554E-14  0.514826036349E-15  0.139320671753E-15  0.361424164269E-16
  0.897587451192E-17  0.213101089599E-17
 kinetic energy-density
  0.420695327584E+04  0.422408263221E+04  0.424203250696E+04  0.426082975501E+04  0.428050230181E+04
  0.430107913920E+04  0.432259035127E+04  0.434506734174E+04  0.436854275636E+04  0.439305069188E+04
  0.441862664235E+04  0.444530767552E+04  0.447313266731E+04  0.450214210225E+04  0.453237834944E+04
  0.456388588250E+04  0.459671139339E+04  0.463090323733E+04  0.466651269126E+04  0.470359344922E+04
  0.474220136377E+04  0.478239564979E+04  0.482423788732E+04  0.486779277907E+04  0.491312834479E+04
  0.496031581942E+04  0.500942965906E+04  0.506054833416E+04  0.511375383746E+04  0.516913210591E+04
  0.522677328955E+04  0.528677179470E+04  0.534922662661E+04  0.541424139386E+04  0.548192477099E+04
  0.555239050549E+04  0.562575782907E+04  0.570215164504E+04  0.578170281023E+04  0.586454842311E+04
  0.595083214947E+04  0.604070453687E+04  0.613432335937E+04  0.623185398013E+04  0.633346974395E+04
  0.643935237802E+04  0.654969242357E+04  0.666468968917E+04  0.678455372899E+04  0.690950434552E+04
  0.703977212209E+04  0.717559898040E+04  0.731723878058E+04  0.746495788725E+04  0.761903592732E+04
  0.777976636593E+04  0.794745727160E+04  0.812243206405E+04  0.830503033248E+04  0.849560861457E+04
  0.869454127353E+04  0.890222152155E+04  0.911906218351E+04  0.934549685460E+04  0.958198087313E+04
  0.982899247630E+04  0.100870338516E+05  0.103566323940E+05  0.106383420243E+05  0.109327443218E+05
  0.112404500569E+05  0.115621004825E+05  0.118983689077E+05  0.122499621506E+05  0.126176221712E+05
  0.130021277531E+05  0.134042961676E+05  0.138249850019E+05  0.142650939692E+05  0.147255668431E+05
  0.152073934025E+05  0.157116114707E+05  0.162393090225E+05  0.167916262860E+05  0.173697580104E+05
  0.179749556412E+05  0.186085297085E+05  0.192718521065E+05  0.199663585490E+05  0.206935509168E+05
  0.214549997947E+05  0.222523468539E+05  0.230873073895E+05  0.239616727632E+05  0.248773129601E+05
  0.258361787827E+05  0.268403045050E+05  0.278918101020E+05  0.289929034178E+05  0.301458825246E+05
  0.313531374121E+05  0.326171522399E+05  0.339405067735E+05  0.353258779186E+05  0.367760409578E+05
  0.382938705987E+05  0.398823414195E+05  0.415445282469E+05  0.432836059467E+05  0.451028486981E+05
  0.470056290550E+05  0.489954159343E+05  0.510757722645E+05  0.532503519582E+05  0.555228958513E+05
  0.578972269235E+05  0.603772445858E+05  0.629669176821E+05  0.656702767535E+05  0.684914046370E+05
  0.714344260910E+05  0.745034956657E+05  0.777027843115E+05  0.810364640988E+05  0.845086913308E+05
  0.881235876709E+05  0.918852192918E+05  0.957975740392E+05  0.998645361159E+05  0.104089858716E+06
  0.108477134065E+06  0.113029760953E+06  0.117750909715E+06  0.122643484540E+06  0.127710082709E+06
  0.132952951949E+06  0.138373943484E+06  0.143974463918E+06  0.149755423192E+06  0.155717180137E+06
  0.161859485730E+06  0.168181423248E+06  0.174681346879E+06  0.181356817416E+06  0.188204536818E+06
  0.195220281162E+06  0.202398832128E+06  0.209733908939E+06  0.217218098825E+06  0.224842789796E+06
  0.232598103295E+06  0.240472829959E+06  0.248454367975E+06  0.256528665566E+06  0.264680168551E+06
  0.272891774116E+06  0.281144791998E+06  0.289418914639E+06  0.297692197112E+06  0.305941049166E+06
  0.314140239817E+06  0.322262917105E+06  0.330280643521E+06  0.338163449501E+06  0.345879905934E+06
  0.353397217377E+06  0.360681337192E+06  0.367697105956E+06  0.374408414064E+06  0.380778389355E+06
  0.386769610467E+06  0.392344345989E+06  0.397464819574E+06  0.402093500185E+06  0.406193416949E+06
  0.409728496822E+06  0.412663923363E+06  0.414966513908E+06  0.416605112111E+06  0.417550992047E+06
  0.417778269423E+06  0.417264314924E+06  0.415990164037E+06  0.413940917014E+06  0.411106122271E+06
  0.407480135993E+06  0.403062450233E+06  0.397857981820E+06  0.391877313984E+06  0.385136882938E+06
  0.377659101835E+06  0.369472414991E+06  0.360611276058E+06  0.351116044870E+06  0.341032798747E+06
  0.330413055690E+06  0.319313408486E+06  0.307795070353E+06  0.295923334764E+06  0.283766953610E+06
  0.271397439337E+06  0.258888297554E+06  0.246314210093E+06  0.233750120000E+06  0.221270365156E+06
  0.208947700122E+06  0.196852352304E+06  0.185051082400E+06  0.173606281336E+06  0.162575128203E+06
  0.152008832002E+06  0.141951976134E+06  0.132441979739E+06  0.123508685181E+06  0.115174077085E+06
  0.107452135402E+06  0.100348822865E+06  0.938622057753E+05  0.879827056686E+05  0.826934781528E+05
  0.779709130901E+05  0.737852479336E+05  0.701012832464E+05  0.668791863658E+05  0.640753667868E+05
  0.616434046477E+05  0.595350121614E+05  0.577010070398E+05  0.560922770774E+05  0.546607151034E+05
  0.533601049128E+05  0.521469399930E+05  0.509811588339E+05  0.498267823054E+05  0.486524413222E+05
  0.474317848545E+05  0.461437612014E+05  0.447727676548E+05  0.433086666229E+05  0.417466687081E+05
  0.400870866937E+05  0.383349673256E+05  0.364996119521E+05  0.345940009202E+05  0.326341408646E+05
  0.306383576403E+05  0.286265593150E+05  0.266194926909E+05  0.246380145396E+05  0.227023827956E+05
  0.208316013584E+05  0.190427840155E+05  0.173506447852E+05  0.157670571352E+05  0.143007924840E+05
  0.129574310713E+05  0.117394408553E+05  0.106463783537E+05  0.967515855472E+04  0.882036531257E+04
  0.807459852573E+04  0.742885888993E+04  0.687296247042E+04  0.639596929569E+04  0.598660716113E+04
  0.563367235488E+04  0.532639108708E+04  0.505472818912E+04  0.480963337057E+04  0.458321931891E+04
  0.436887027699E+04  0.416128388067E+04  0.395645244209E+04  0.375159246762E+04  0.354503308241E+04
  0.333607454536E+04  0.312482824417E+04  0.291204855155E+04  0.269896584175E+04  0.248712814671E+04
  0.227825729039E+04  0.207412335666E+04  0.187643966648E+04  0.168677983883E+04  0.150651523295E+04
  0.133677302529E+04  0.117841055930E+04  0.103200909177E+04  0.897877533469E+03  0.776069395019E+03
  0.666408278434E+03  0.568519964666E+03  0.481868587866E+03  0.405794173434E+03  0.339548717417E+03
  0.282328287626E+03  0.233299713939E+03  0.191622209213E+03  0.156465766655E+03  0.127028174115E+03
  0.102551206365E+03  0.823325128963E+02  0.657365405909E+02  0.521969006165E+02  0.412163253245E+02
  0.323633450453E+02  0.252673232766E+02  0.196127244028E+02  0.151331450147E+02  0.116054213101E+02
  0.884400329499E+01  0.669571527493E+01  0.503497509434E+01  0.375950773905E+01  0.278656100787E+01
  0.204960901643E+01  0.149551436756E+01  0.108211036564E+01  0.776159831881E+00  0.551645882598E+00
  0.388351205254E+00  0.270685260491E+00  0.186722513256E+00  0.127418894591E+00  0.859777697225E-01
  0.573405290976E-01  0.377804321698E-01  0.245814514331E-01  0.157866054737E-01  0.100026632394E-01
  0.625018444720E-02  0.384967436722E-02  0.233620464972E-02  0.139621393761E-02  0.821373674539E-03
  0.475405326394E-03  0.270582525042E-03  0.151361433537E-03  0.831697705768E-04  0.448633626112E-04
  0.237421896330E-04  0.123186705440E-04  0.626206551502E-05  0.311648057006E-05  0.151730731778E-05
  0.722108623566E-06  0.335659217367E-06  0.152264908942E-06  0.673497931318E-07  0.290221958967E-07
  0.121729750340E-07  0.496526955393E-08  0.196773899316E-08  0.756938568906E-09  0.282359419336E-09
  0.102037916935E-09  0.356858337929E-10  0.120656171474E-10  0.393961103011E-11  0.124086133563E-11
  0.376582122339E-12  0.109988362904E-12  0.308781489729E-13  0.832189488235E-14  0.215025494532E-14
  0.531943366385E-15  0.125817033358E-15
 mkinetic energy-density pseudized
  0.225631471324E-05  0.240543996370E-05  0.256442125951E-05  0.273391001031E-05  0.291460067898E-05
  0.310723362713E-05  0.331259814860E-05  0.353153570358E-05  0.376494336637E-05  0.401377750105E-05
  0.427905768009E-05  0.456187086194E-05  0.486337584476E-05  0.518480801439E-05  0.552748440634E-05
  0.589280910210E-05  0.628227898227E-05  0.669748985985E-05  0.714014301895E-05  0.761205218560E-05
  0.811515095930E-05  0.865150073575E-05  0.922329915322E-05  0.983288909710E-05  0.104827682997E-04
  0.111755995743E-04  0.119142217260E-04  0.127016611831E-04  0.135411443979E-04  0.144361110665E-04
  0.153902282226E-04  0.164074052631E-04  0.174918099658E-04  0.186478855673E-04  0.198803689678E-04
  0.211943101406E-04  0.225950928235E-04  0.240884565786E-04  0.256805203086E-04  0.273778073295E-04
  0.291872720979E-04  0.311163287074E-04  0.331728812660E-04  0.353653562826E-04  0.377027371941E-04
  0.401946011734E-04  0.428511583711E-04  0.456832937503E-04  0.487026116865E-04  0.519214835152E-04
  0.553530982219E-04  0.590115164826E-04  0.629117282753E-04  0.670697143001E-04  0.715025114577E-04
  0.762282826564E-04  0.812663912319E-04  0.866374802865E-04  0.923635572712E-04  0.984680841585E-04
  0.104976073575E-03  0.111914191285E-03  0.119310865456E-03  0.127196403129E-03  0.135603114409E-03
  0.144565444840E-03  0.154120116550E-03  0.164306278705E-03  0.175165667927E-03  0.186742779292E-03
  0.199085048653E-03  0.212243046990E-03  0.226270687623E-03  0.241225447108E-03  0.257168600742E-03
  0.274165473621E-03  0.292285708303E-03  0.311603550148E-03  0.332198151531E-03  0.354153896147E-03
  0.377560744757E-03  0.402514603780E-03  0.429117718251E-03  0.457479090741E-03  0.487714927973E-03
  0.519949116944E-03  0.554313732520E-03  0.590949578578E-03  0.630006764905E-03  0.671645322230E-03
  0.716035857897E-03  0.763360254873E-03  0.813812416949E-03  0.867599063190E-03  0.924940574889E-03
  0.986071898487E-03  0.105124350817E-02  0.112072243209E-02  0.119479334634E-02  0.127375974135E-02
  0.135794516523E-02  0.144769454932E-02  0.154337562143E-02  0.164538041227E-02  0.175412686166E-02
  0.187006053066E-02  0.199365642702E-02  0.212542095113E-02  0.226589397059E-02  0.241565103189E-02
  0.257530571819E-02  0.274551216290E-02  0.292696772936E-02  0.312041586755E-02  0.332664915951E-02
  0.354651256610E-02  0.378090688806E-02  0.403079245595E-02  0.429719306367E-02  0.458120016201E-02
  0.488397732906E-02  0.520676503606E-02  0.555088572802E-02  0.591774923990E-02  0.630885857056E-02
  0.672581603815E-02  0.717032984184E-02  0.764422105714E-02  0.814943109299E-02  0.868802964140E-02
  0.926222315199E-02  0.987436386605E-02  0.105269594471E-01  0.112226832473E-01  0.119643852514E-01
  0.127551037434E-01  0.135980777429E-01  0.144967602625E-01  0.154548324399E-01  0.164762186026E-01
  0.175651023267E-01  0.187259435545E-01  0.199634968418E-01  0.212828308087E-01  0.226893488725E-01
  0.241888113483E-01  0.257873590058E-01  0.274915381795E-01  0.293083275335E-01  0.312451665892E-01
  0.333099861331E-01  0.355112406268E-01  0.378579427508E-01  0.403597002232E-01  0.430267550399E-01
  0.458700252983E-01  0.489011497702E-01  0.521325354068E-01  0.555774079649E-01  0.592498659602E-01
  0.631649381642E-01  0.673386448749E-01  0.717880632097E-01  0.765313966794E-01  0.815880493238E-01
  0.869787047051E-01  0.927254100735E-01  0.988516660410E-01  0.105382522119E+00  0.112344678503E+00
  0.119766594498E+00  0.127678604023E+00  0.136113038647E+00  0.145104358637E+00  0.154689292530E+00
  0.164906985785E+00  0.175799159079E+00  0.187410276874E+00  0.199787726904E+00  0.212982011260E+00
  0.227046949828E+00  0.242039896842E+00  0.258021971372E+00  0.275058302629E+00  0.293218291001E+00
  0.312575885795E+00  0.333209880713E+00  0.355204228161E+00  0.378648373520E+00  0.403637610610E+00
  0.430273459611E+00  0.458664068789E+00  0.488924641438E+00  0.521177889536E+00  0.555554515653E+00
  0.592193724766E+00  0.631243767680E+00  0.672862517849E+00  0.717218083463E+00  0.764489456735E+00
  0.814867202427E+00  0.868554187685E+00  0.925766355366E+00  0.986733543082E+00  0.105170035024E+01
  0.112092705548E+01  0.119469058677E+01  0.127328554678E+01  0.135702529581E+01  0.144624309472E+01
  0.154129331043E+01  0.164255268619E+01  0.175042167900E+01  0.186532586636E+01  0.198771742440E+01
  0.211807667910E+01  0.225691373236E+01  0.240477016395E+01  0.256222081035E+01  0.272987562068E+01
  0.290838158958E+01  0.309842476597E+01  0.330073233592E+01  0.351607477686E+01  0.374526807897E+01
  0.398917602853E+01  0.424871254617E+01  0.452484407110E+01  0.481859198037E+01  0.513103502963E+01
  0.546331179890E+01  0.581662312383E+01  0.619223448883E+01  0.659147835447E+01  0.701575638648E+01
  0.746654154822E+01  0.794538001209E+01  0.845389283867E+01  0.899377736374E+01  0.956680822518E+01
  0.101748379510E+02  0.108197970190E+02  0.115036932864E+02  0.122286106727E+02  0.129967069654E+02
  0.138102106005E+02  0.146714162510E+02  0.155826790371E+02  0.165464071502E+02  0.175650526571E+02
  0.186411002294E+02  0.197770535118E+02  0.209754188178E+02  0.222386858107E+02  0.235693047970E+02
  0.249696602288E+02  0.264420399834E+02  0.279885999551E+02  0.296113234731E+02  0.313119750322E+02
  0.330920478093E+02  0.349527044279E+02  0.368947104382E+02  0.389183599934E+02  0.410233932408E+02
  0.432089050031E+02  0.454732444156E+02  0.478139053032E+02  0.502274072546E+02  0.527091675656E+02
  0.552533645069E+02  0.578527927266E+02  0.604987120399E+02  0.631806913933E+02  0.658864504447E+02
  0.686017019740E+02  0.713099992489E+02  0.739925935312E+02  0.766283081180E+02  0.791934366818E+02
  0.816616751838E+02  0.840040982824E+02  0.861891928959E+02  0.881829633621E+02  0.899491243810E+02
  0.914493995156E+02  0.926439443138E+02  0.934919138833E+02  0.939521947466E+02  0.939843196897E+02
  0.935495816891E+02  0.926123583629E+02  0.911416511906E+02  0.891128333254E+02  0.865095855057E+02
  0.833259806533E+02  0.795686535578E+02  0.752589620900E+02  0.704350103882E+02  0.651533626424E+02
  0.594902293175E+02  0.535418577786E+02  0.474238094897E+02  0.412687611823E+02  0.352224347514E+02
  0.294372498537E+02  0.240633169161E+02  0.192364622517E+02  0.150631197689E+02  0.116021558822E+02
  0.884400329499E+01  0.669571527493E+01  0.503497509434E+01  0.375950773905E+01  0.278656100787E+01
  0.204960901643E+01  0.149551436756E+01  0.108211036564E+01  0.776159831881E+00  0.551645882598E+00
  0.388351205254E+00  0.270685260491E+00  0.186722513256E+00  0.127418894591E+00  0.859777697225E-01
  0.573405290976E-01  0.377804321698E-01  0.245814514331E-01  0.157866054737E-01  0.100026632394E-01
  0.625018444720E-02  0.384967436722E-02  0.233620464972E-02  0.139621393761E-02  0.821373674539E-03
  0.475405326394E-03  0.270582525042E-03  0.151361433537E-03  0.831697705768E-04  0.448633626112E-04
  0.237421896330E-04  0.123186705440E-04  0.626206551502E-05  0.311648057006E-05  0.151730731778E-05
  0.722108623566E-06  0.335659217367E-06  0.152264908942E-06  0.673497931318E-07  0.290221958967E-07
  0.121729750340E-07  0.496526955393E-08  0.196773899316E-08  0.756938568906E-09  0.282359419336E-09
  0.102037916935E-09  0.356858337929E-10  0.120656171474E-10  0.393961103011E-11  0.124086133563E-11
  0.376582122339E-12  0.109988362904E-12  0.308781489729E-13  0.832189488235E-14  0.215025494532E-14
  0.531943366385E-15  0.125817033358E-15
 local pseudopotential core
 -0.105433521898E+03 -0.105432122131E+03 -0.105430766453E+03 -0.105429453477E+03 -0.105428181857E+03
 -0.105426950292E+03 -0.105425757520E+03 -0.105424602321E+03 -0.105423483512E+03 -0.105422399948E+03
 -0.105421350518E+03 -0.105420334149E+03 -0.105419349800E+03 -0.105418396463E+03 -0.105417473163E+03
 -0.105416578954E+03 -0.105415712921E+03 -0.105414874178E+03 -0.105414061866E+03 -0.105413275155E+03
 -0.105412513238E+03 -0.105411775336E+03 -0.105411060694E+03 -0.105410368582E+03 -0.105409698290E+03
 -0.105409049134E+03 -0.105408420449E+03 -0.105407811593E+03 -0.105407221943E+03 -0.105406650896E+03
 -0.105406097868E+03 -0.105405562295E+03 -0.105405043629E+03 -0.105404541340E+03 -0.105404054916E+03
 -0.105403583859E+03 -0.105403127690E+03 -0.105402685942E+03 -0.105402258165E+03 -0.105401843922E+03
 -0.105401442793E+03 -0.105401054368E+03 -0.105400678252E+03 -0.105400314062E+03 -0.105399961428E+03
 -0.105399619992E+03 -0.105399289407E+03 -0.105398969338E+03 -0.105398659460E+03 -0.105398359461E+03
 -0.105398069037E+03 -0.105397787894E+03 -0.105397515750E+03 -0.105397252330E+03 -0.105396997370E+03
 -0.105396750614E+03 -0.105396511816E+03 -0.105396280737E+03 -0.105396057147E+03 -0.105395840825E+03
 -0.105395631556E+03 -0.105395429133E+03 -0.105395233360E+03 -0.105395044043E+03 -0.105394861000E+03
 -0.105394684052E+03 -0.105394513031E+03 -0.105394347772E+03 -0.105394188119E+03 -0.105394033922E+03
 -0.105393885038E+03 -0.105393741329E+03 -0.105393602665E+03 -0.105393468920E+03 -0.105393339977E+03
 -0.105393215724E+03 -0.105393096053E+03 -0.105392980865E+03 -0.105392870067E+03 -0.105392763570E+03
 -0.105392661292E+03 -0.105392563158E+03 -0.105392469098E+03 -0.105392379048E+03 -0.105392292953E+03
 -0.105392210761E+03 -0.105392132428E+03 -0.105392057916E+03 -0.105391987195E+03 -0.105391920241E+03
 -0.105391857036E+03 -0.105391797572E+03 -0.105391741846E+03 -0.105391689863E+03 -0.105391641637E+03
 -0.105391597191E+03 -0.105391556554E+03 -0.105391519765E+03 -0.105391486873E+03 -0.105391457937E+03
 -0.105391433025E+03 -0.105391412215E+03 -0.105391395599E+03 -0.105391383277E+03 -0.105391375363E+03
 -0.105391371985E+03 -0.105391373283E+03 -0.105391379412E+03 -0.105391390541E+03 -0.105391406857E+03
 -0.105391428561E+03 -0.105391455874E+03 -0.105391489037E+03 -0.105391528306E+03 -0.105391573964E+03
 -0.105391626313E+03 -0.105391685679E+03 -0.105391752413E+03 -0.105391826896E+03 -0.105391909532E+03
 -0.105392000761E+03 -0.105392101050E+03 -0.105392210903E+03 -0.105392330860E+03 -0.105392461498E+03
 -0.105392603438E+03 -0.105392757341E+03 -0.105392923918E+03 -0.105393103927E+03 -0.105393298179E+03
 -0.105393507541E+03 -0.105393732941E+03 -0.105393975369E+03 -0.105394235883E+03 -0.105394515613E+03
 -0.105394815766E+03 -0.105395137631E+03 -0.105395482583E+03 -0.105395852090E+03 -0.105396247721E+03
 -0.105396671146E+03 -0.105397124151E+03 -0.105397608640E+03 -0.105398126645E+03 -0.105398680331E+03
 -0.105399272012E+03 -0.105399904154E+03 -0.105400579385E+03 -0.105401300512E+03 -0.105402070527E+03
 -0.105402892619E+03 -0.105403770192E+03 -0.105404706873E+03 -0.105405706532E+03 -0.105406773295E+03
 -0.105407911559E+03 -0.105409126016E+03 -0.105410421666E+03 -0.105411803841E+03 -0.105413278226E+03
 -0.105414850882E+03 -0.105416528268E+03 -0.105418317275E+03 -0.105420225245E+03 -0.105422260007E+03
 -0.105424429906E+03 -0.105426743839E+03 -0.105429211289E+03 -0.105431842366E+03 -0.105434647845E+03
 -0.105437639212E+03 -0.105440828712E+03 -0.105444229394E+03 -0.105447855168E+03 -0.105451720861E+03
 -0.105455842274E+03 -0.105460236249E+03 -0.105464920736E+03 -0.105469914864E+03 -0.105475239021E+03
 -0.105480914933E+03 -0.105486965754E+03 -0.105493416156E+03 -0.105500292433E+03 -0.105507622598E+03
 -0.105515436505E+03 -0.105523765960E+03 -0.105532644852E+03 -0.105542109285E+03 -0.105552197725E+03
 -0.105562951148E+03 -0.105574413206E+03 -0.105586630395E+03 -0.105599652242E+03 -0.105613531495E+03
 -0.105628324331E+03 -0.105644090575E+03 -0.105660893933E+03 -0.105678802234E+03 -0.105697887699E+03
 -0.105718227208E+03 -0.105739902604E+03 -0.105763000994E+03 -0.105787615086E+03 -0.105813843533E+03
 -0.105841791303E+03 -0.105871570066E+03 -0.105903298610E+03 -0.105937103272E+03 -0.105973118396E+03
 -0.106011486818E+03 -0.106052360375E+03 -0.106095900439E+03 -0.106142278478E+03 -0.106191676653E+03
 -0.106244288432E+03 -0.106300319243E+03 -0.106359987151E+03 -0.106423523570E+03 -0.106491174000E+03
 -0.106563198798E+03 -0.106639873976E+03 -0.106721492031E+03 -0.106808362799E+03 -0.106900814337E+03
 -0.106999193825E+03 -0.107103868497E+03 -0.107215226578E+03 -0.107333678244E+03 -0.107459656584E+03
 -0.107593618559E+03 -0.107736045967E+03 -0.107887446377E+03 -0.108048354045E+03 -0.108219330790E+03
 -0.108400966809E+03 -0.108593881432E+03 -0.108798723776E+03 -0.109016173290E+03 -0.109246940159E+03
 -0.109491765543E+03 -0.109751421612E+03 -0.110026711336E+03 -0.110318468002E+03 -0.110627554395E+03
 -0.110954861592E+03 -0.111301307321E+03 -0.111667833795E+03 -0.112055404972E+03 -0.112465003138E+03
 -0.112897624733E+03 -0.113354275320E+03 -0.113835963576E+03 -0.114343694203E+03 -0.114878459613E+03
 -0.115441230260E+03 -0.116032943454E+03 -0.116654490508E+03 -0.117306702047E+03 -0.117990331283E+03
 -0.118706035085E+03 -0.119454352637E+03 -0.120235681487E+03 -0.121050250778E+03 -0.121898091460E+03
 -0.122779003284E+03 -0.123692518377E+03 -0.124637861229E+03 -0.125613904933E+03 -0.126619123531E+03
 -0.127651540402E+03 -0.128708672610E+03 -0.129787471257E+03 -0.130884257895E+03 -0.131994657205E+03
 -0.133113526187E+03 -0.134234880321E+03 -0.135351817225E+03 -0.136456438621E+03 -0.137539771570E+03
 -0.138591690288E+03 -0.139600840168E+03 -0.140554566079E+03 -0.141438847584E+03 -0.142238244377E+03
 -0.142935856167E+03 -0.143513302372E+03 -0.143950728420E+03 -0.144226847408E+03 -0.144319028201E+03
 -0.144203444132E+03 -0.143855300200E+03 -0.143249161148E+03 -0.142359408102E+03 -0.141160857071E+03
 -0.139629578317E+03 -0.137743960003E+03 -0.135486061029E+03 -0.132843293523E+03 -0.129810460959E+03
 -0.126392147542E+03 -0.122605401653E+03 -0.118482573975E+03 -0.114074055312E+03 -0.109450513337E+03
 -0.104704068236E+03 -0.999477123486E+02 -0.953122302876E+02 -0.909399944251E+02 -0.869753709874E+02
 -0.835524507025E+02 -0.808097814864E+02 -0.788303321953E+02 -0.774494917562E+02 -0.749971382907E+02
 -0.726312856517E+02 -0.703410180947E+02 -0.681236805946E+02 -0.659767660635E+02 -0.638978983728E+02
 -0.618848145980E+02 -0.599353551746E+02 -0.580474490808E+02 -0.562191103967E+02 -0.544484301560E+02
 -0.527335670512E+02 -0.510727462780E+02 -0.494642540857E+02 -0.479064341071E+02 -0.463976852152E+02
 -0.449364582117E+02 -0.435212540222E+02 -0.421506216209E+02 -0.408231562833E+02 -0.395374978267E+02
 -0.382923292206E+02 -0.370863750328E+02 -0.359184001640E+02 -0.347872084619E+02 -0.336916414622E+02
 -0.326305773532E+02 -0.316029295204E+02 -0.306076456675E+02 -0.296437066081E+02 -0.287101252461E+02
 -0.278059455589E+02 -0.269302416144E+02 -0.260821166281E+02 -0.252607020470E+02 -0.244651566632E+02
 -0.236946657558E+02 -0.229484402608E+02 -0.222257159640E+02 -0.215257527203E+02 -0.208478336962E+02
 -0.201912646360E+02 -0.195553731508E+02 -0.189395080293E+02 -0.183430385710E+02 -0.177653539395E+02
 -0.172058625369E+02 -0.166639913974E+02 -0.161391856004E+02 -0.156309077021E+02 -0.151386371848E+02
 -0.146618699235E+02 -0.142001176703E+02
 pspotential valence only
 -0.716922695033E+02 -0.716908696766E+02 -0.716895139347E+02 -0.716882008900E+02 -0.716869291976E+02
 -0.716856975549E+02 -0.716845047012E+02 -0.716833494145E+02 -0.716822305117E+02 -0.716811468471E+02
 -0.716800973108E+02 -0.716790808282E+02 -0.716780963581E+02 -0.716771428923E+02 -0.716762194547E+02
 -0.716753250992E+02 -0.716744589103E+02 -0.716736200004E+02 -0.716728075111E+02 -0.716720206100E+02
 -0.716712584910E+02 -0.716705203738E+02 -0.716698055026E+02 -0.716691131454E+02 -0.716684425930E+02
 -0.716677931588E+02 -0.716671641776E+02 -0.716665550055E+02 -0.716659650183E+02 -0.716653936121E+02
 -0.716648402016E+02 -0.716643042201E+02 -0.716637851189E+02 -0.716632823660E+02 -0.716627954469E+02
 -0.716623238629E+02 -0.716618671311E+02 -0.716614247835E+02 -0.716609963674E+02 -0.716605814440E+02
 -0.716601795882E+02 -0.716597903889E+02 -0.716594134472E+02 -0.716590483773E+02 -0.716586948050E+02
 -0.716583523686E+02 -0.716580207174E+02 -0.716576995116E+02 -0.716573884224E+02 -0.716570871311E+02
 -0.716567953294E+02 -0.716565127183E+02 -0.716562390086E+02 -0.716559739198E+02 -0.716557171805E+02
 -0.716554685280E+02 -0.716552277076E+02 -0.716549944727E+02 -0.716547685845E+02 -0.716545498116E+02
 -0.716543379302E+02 -0.716541327233E+02 -0.716539339807E+02 -0.716537414990E+02 -0.716535550812E+02
 -0.716533745364E+02 -0.716531996798E+02 -0.716530303323E+02 -0.716528663207E+02 -0.716527074770E+02
 -0.716525536387E+02 -0.716524046484E+02 -0.716522603535E+02 -0.716521206064E+02 -0.716519852640E+02
 -0.716518541881E+02 -0.716517272443E+02 -0.716516043028E+02 -0.716514852380E+02 -0.716513699280E+02
 -0.716512582549E+02 -0.716511501045E+02 -0.716510453663E+02 -0.716509439333E+02 -0.716508457016E+02
 -0.716507505711E+02 -0.716506584445E+02 -0.716505692277E+02 -0.716504828297E+02 -0.716503991623E+02
 -0.716503181401E+02 -0.716502396804E+02 -0.716501637034E+02 -0.716500901316E+02 -0.716500188901E+02
 -0.716499499063E+02 -0.716498831101E+02 -0.716498184336E+02 -0.716497558110E+02 -0.716496951789E+02
 -0.716496364757E+02 -0.716495796421E+02 -0.716495246204E+02 -0.716494713550E+02 -0.716494197923E+02
 -0.716493698802E+02 -0.716493215686E+02 -0.716492748089E+02 -0.716492295542E+02 -0.716491857594E+02
 -0.716491433806E+02 -0.716491023758E+02 -0.716490627043E+02 -0.716490243268E+02 -0.716489872056E+02
 -0.716489513042E+02 -0.716489165875E+02 -0.716488830219E+02 -0.716488505749E+02 -0.716488192153E+02
 -0.716487889132E+02 -0.716487596400E+02 -0.716487313681E+02 -0.716487040713E+02 -0.716486777244E+02
 -0.716486523035E+02 -0.716486277858E+02 -0.716486041497E+02 -0.716485813745E+02 -0.716485594409E+02
 -0.716485383306E+02 -0.716485180264E+02 -0.716484985123E+02 -0.716484797733E+02 -0.716484617956E+02
 -0.716484445665E+02 -0.716484280746E+02 -0.716484123095E+02 -0.716483972619E+02 -0.716483829238E+02
 -0.716483692886E+02 -0.716483563506E+02 -0.716483441055E+02 -0.716483325505E+02 -0.716483216837E+02
 -0.716483115051E+02 -0.716483020157E+02 -0.716482932182E+02 -0.716482851168E+02 -0.716482777171E+02
 -0.716482710265E+02 -0.716482650541E+02 -0.716482598107E+02 -0.716482553092E+02 -0.716482515641E+02
 -0.716482485922E+02 -0.716482464123E+02 -0.716482450455E+02 -0.716482445154E+02 -0.716482448477E+02
 -0.716482460711E+02 -0.716482482170E+02 -0.716482513196E+02 -0.716482554161E+02 -0.716482605472E+02
 -0.716482667568E+02 -0.716482740926E+02 -0.716482826060E+02 -0.716482923526E+02 -0.716483033921E+02
 -0.716483157892E+02 -0.716483296128E+02 -0.716483449376E+02 -0.716483618431E+02 -0.716483804150E+02
 -0.716484007451E+02 -0.716484229313E+02 -0.716484470788E+02 -0.716484732999E+02 -0.716485017146E+02
 -0.716485324512E+02 -0.716485656467E+02 -0.716486014473E+02 -0.716486400088E+02 -0.716486814978E+02
 -0.716487260916E+02 -0.716487739792E+02 -0.716488253619E+02 -0.716488804542E+02 -0.716489394846E+02
 -0.716490026959E+02 -0.716490703467E+02 -0.716491427119E+02 -0.716492200840E+02 -0.716493027737E+02
 -0.716493911109E+02 -0.716494854462E+02 -0.716495861518E+02 -0.716496936226E+02 -0.716498082775E+02
 -0.716499305604E+02 -0.716500609421E+02 -0.716501999210E+02 -0.716503480248E+02 -0.716505058118E+02
 -0.716506738722E+02 -0.716508528299E+02 -0.716510433436E+02 -0.716512461083E+02 -0.716514618568E+02
 -0.716516913611E+02 -0.716519354334E+02 -0.716521949281E+02 -0.716524707421E+02 -0.716527638162E+02
 -0.716530751363E+02 -0.716534057334E+02 -0.716537566846E+02 -0.716541291129E+02 -0.716545241868E+02
 -0.716549431201E+02 -0.716553871705E+02 -0.716558576374E+02 -0.716563558601E+02 -0.716568832139E+02
 -0.716574411063E+02 -0.716580309711E+02 -0.716586542622E+02 -0.716593124453E+02 -0.716600069878E+02
 -0.716607393474E+02 -0.716615109578E+02 -0.716623232124E+02 -0.716631774440E+02 -0.716640749028E+02
 -0.716650167289E+02 -0.716660039213E+02 -0.716670373017E+02 -0.716681174722E+02 -0.716692447667E+02
 -0.716704191945E+02 -0.716716403751E+02 -0.716729074630E+02 -0.716742190607E+02 -0.716755731185E+02
 -0.716769668189E+02 -0.716783964423E+02 -0.716798572126E+02 -0.716813431183E+02 -0.716828467050E+02
 -0.716843588355E+02 -0.716858684110E+02 -0.716873620478E+02 -0.716888237015E+02 -0.716902342300E+02
 -0.716915708855E+02 -0.716928067232E+02 -0.716939099137E+02 -0.716948429438E+02 -0.716955616876E+02
 -0.716960143292E+02 -0.716961401151E+02 -0.716958679116E+02 -0.716951145435E+02 -0.716937828837E+02
 -0.716917596688E+02 -0.716889130087E+02 -0.716850895643E+02 -0.716801113670E+02 -0.716737722569E+02
 -0.716658339261E+02 -0.716560215593E+02 -0.716440190768E+02 -0.716294640030E+02 -0.716119419998E+02
 -0.715909811321E+02 -0.715660459583E+02 -0.715365315721E+02 -0.715017577577E+02 -0.714609634584E+02
 -0.714133017940E+02 -0.713578359010E+02 -0.712935358952E+02 -0.712192772792E+02 -0.711338411216E+02
 -0.710359163224E+02 -0.709241042471E+02 -0.707969259523E+02 -0.706528321463E+02 -0.704902159213E+02
 -0.703074281760E+02 -0.701027955158E+02 -0.698746402939E+02 -0.696213023470E+02 -0.693411618930E+02
 -0.690326630134E+02 -0.686943371287E+02 -0.683248258868E+02 -0.679229029112E+02 -0.674874938432E+02
 -0.670176940474E+02 -0.665127831504E+02 -0.659722352317E+02 -0.653957229205E+02 -0.647831128862E+02
 -0.641344492990E+02 -0.634499209645E+02 -0.627298073686E+02 -0.619743994748E+02 -0.611838932586E+02
 -0.603586073768E+02 -0.595280199129E+02 -0.587048561699E+02 -0.577045221228E+02 -0.567203097849E+02
 -0.557221320691E+02 -0.547048730026E+02 -0.536716054399E+02 -0.526254370276E+02 -0.515694285827E+02
 -0.505065032067E+02 -0.494393638705E+02 -0.483704080284E+02 -0.473016587724E+02 -0.462347231358E+02
 -0.451707827604E+02 -0.441106334427E+02 -0.430547715121E+02 -0.420035218311E+02 -0.409571910084E+02
 -0.399162245785E+02 -0.388813435854E+02 -0.378536420570E+02 -0.368346334192E+02 -0.358262425738E+02
 -0.348307470788E+02 -0.338506750682E+02 -0.328886696118E+02 -0.319473305437E+02 -0.310290465533E+02
 -0.301358329808E+02 -0.292691932192E+02 -0.284300220720E+02 -0.276185657803E+02 -0.268344453118E+02
 -0.260767384961E+02 -0.253441060550E+02 -0.246349399225E+02 -0.239475112687E+02 -0.232800998261E+02
 -0.226310932649E+02 -0.219990528767E+02 -0.213827477880E+02 -0.207811635135E+02 -0.201934920111E+02
 -0.196191101231E+02 -0.190575521142E+02 -0.185084805263E+02 -0.179716581486E+02 -0.174469227304E+02
 -0.169341651959E+02 -0.164333115416E+02 -0.159443082399E+02 -0.154671107878E+02 -0.150016749623E+02
 -0.145479503429E+02 -0.141058756896E+02
 core charge-density (pseudized)
  0.161224131807E-07  0.171879821326E-07  0.183239770913E-07  0.195350526804E-07  0.208261711586E-07
  0.222026227524E-07  0.236700473317E-07  0.252344575191E-07  0.269022633257E-07  0.286802984157E-07
  0.305758481065E-07  0.325966792194E-07  0.347510719036E-07  0.370478535630E-07  0.394964350261E-07
  0.421068491050E-07  0.448897917047E-07  0.478566656480E-07  0.510196273975E-07  0.543916368652E-07
  0.579865105149E-07  0.618189779732E-07  0.659047423830E-07  0.702605447452E-07  0.749042325133E-07
  0.798548327216E-07  0.851326299462E-07  0.907592494192E-07  0.967577456355E-07  0.103152696816E-06
  0.109970305616E-06  0.117238506485E-06  0.124987080125E-06  0.133247775520E-06  0.142054440013E-06
  0.151443158004E-06  0.161452398792E-06  0.172123174203E-06  0.183499206635E-06  0.195627108196E-06
  0.208556571703E-06  0.222340574286E-06  0.237035594456E-06  0.252701843524E-06  0.269403512304E-06
  0.287209034133E-06  0.306191365264E-06  0.326428283801E-06  0.348002708381E-06  0.371003037924E-06
  0.395523513843E-06  0.421664606177E-06  0.449533425263E-06  0.479244160606E-06  0.510918548754E-06
  0.544686372098E-06  0.580685990643E-06  0.619064908918E-06  0.659980380356E-06  0.703600051620E-06
  0.750102649515E-06  0.799678713292E-06  0.852531375363E-06  0.908877193602E-06  0.968947038663E-06
  0.103298703994E-05  0.110125959404E-05  0.117404443992E-05  0.125163980508E-05  0.133436362748E-05
  0.142255485827E-05  0.151657485056E-05  0.161680884003E-05  0.172366752333E-05  0.183758874087E-05
  0.195903927079E-05  0.208851674146E-05  0.222655167045E-05  0.237370963821E-05  0.253059360543E-05
  0.269784638349E-05  0.287615326833E-05  0.306624484819E-05  0.326889999711E-05  0.348494906612E-05
  0.371527728540E-05  0.396082839128E-05  0.422260849296E-05  0.450169019470E-05  0.479921699054E-05
  0.511640794940E-05  0.545456270976E-05  0.581506680458E-05  0.619939733793E-05  0.660912903691E-05
  0.704594070348E-05  0.751162209262E-05  0.800808124513E-05  0.853735230487E-05  0.910160385278E-05
  0.970314779147E-05  0.103444488170E-04  0.110281345168E-04  0.117570061342E-04  0.125340500454E-04
  0.133624499935E-04  0.142456001322E-04  0.151871189307E-04  0.161908639975E-04  0.172609478837E-04
  0.184017549309E-04  0.196179592318E-04  0.209145437777E-04  0.222968208714E-04  0.237704538884E-04
  0.253414804759E-04  0.270163372849E-04  0.288018863361E-04  0.307054431270E-04  0.327348065970E-04
  0.348982910712E-04  0.372047603147E-04  0.396636638362E-04  0.422850755898E-04  0.450797352331E-04
  0.480590921104E-04  0.512353521409E-04  0.546215278030E-04  0.582314914207E-04  0.620800319676E-04
  0.661829156227E-04  0.705569503244E-04  0.752200545865E-04  0.801913308577E-04  0.854911437241E-04
  0.911412032734E-04  0.971646539622E-04  0.103586169348E-03  0.110432053073E-03  0.117730346512E-03
  0.125510943521E-03  0.133805712761E-03  0.142648628084E-03  0.152075907521E-03  0.162126161443E-03
  0.172840550478E-03  0.184262953853E-03  0.196440148817E-03  0.209422001910E-03  0.223261672809E-03
  0.238015831627E-03  0.253744890509E-03  0.270513250486E-03  0.288389564573E-03  0.307447018197E-03
  0.327763628057E-03  0.349422560659E-03  0.372512471791E-03  0.397127868312E-03  0.423369493715E-03
  0.451344739021E-03  0.481168080646E-03  0.512961547008E-03  0.546855215743E-03  0.582987743527E-03
  0.621506930604E-03  0.662570322310E-03  0.706345849946E-03  0.753012513592E-03  0.802761109539E-03
  0.855795005251E-03  0.912330964895E-03  0.972600028709E-03  0.103684844967E-02  0.110533869113E-02
  0.117835048929E-02  0.125618198476E-02  0.133915092745E-02  0.142759595955E-02  0.152187798159E-02
  0.162238160668E-02  0.172951670862E-02  0.184372006972E-02  0.196545713452E-02  0.209522387616E-02
  0.223354878214E-02  0.238099496708E-02  0.253816242016E-02  0.270569039547E-02  0.288425995399E-02
  0.307459666636E-02  0.327747348602E-02  0.349371380295E-02  0.372419468863E-02  0.396985034338E-02
  0.423167575793E-02  0.451073060141E-02  0.480814334869E-02  0.512511566046E-02  0.546292703001E-02
  0.582293971143E-02  0.620660394398E-02  0.661546348869E-02  0.705116149290E-02  0.751544669959E-02
  0.801018001833E-02  0.853734147533E-02  0.909903756001E-02  0.969750898599E-02  0.103351388842E-01
  0.110144614460E-01  0.117381710332E-01  0.125091317732E-01  0.133303876531E-01  0.142051731313E-01
  0.151369242765E-01  0.161292904499E-01  0.171861465378E-01  0.183116057424E-01  0.195100329354E-01
  0.207860585723E-01  0.221445931639E-01  0.235908422919E-01  0.251303221521E-01  0.267688755977E-01
  0.285126886475E-01  0.303683074115E-01  0.323426553737E-01  0.344430509574E-01  0.366772252798E-01
  0.390533399836E-01  0.415800050105E-01  0.442662961536E-01  0.471217721979E-01  0.501564914228E-01
  0.533810272013E-01  0.568064823877E-01  0.604445021353E-01  0.643072847305E-01  0.684075899652E-01
  0.727587445014E-01  0.773746436012E-01  0.822697485089E-01  0.874590786742E-01  0.929581978976E-01
  0.987831933608E-01  0.104950646375E+00  0.111477593534E+00  0.118381476813E+00  0.125680080974E+00
  0.133391456468E+00  0.141533825829E+00  0.150125471358E+00  0.159184601667E+00  0.168729194464E+00
  0.178776812696E+00  0.189344390999E+00  0.200447989139E+00  0.212102508977E+00  0.224321371283E+00
  0.237116148610E+00  0.250496150366E+00  0.264467956191E+00  0.279034893870E+00  0.294196458207E+00
  0.309947667657E+00  0.326278356124E+00  0.343172398101E+00  0.360606866497E+00  0.378551123937E+00
  0.396965850267E+00  0.415802011387E+00  0.434999777574E+00  0.454487403136E+00  0.474180083721E+00
  0.493978812968E+00  0.513769266462E+00  0.533420748361E+00  0.552785244449E+00  0.571696634977E+00
  0.589970131248E+00  0.607402011532E+00  0.623769744231E+00  0.638832598967E+00  0.652332858890E+00
  0.663997759223E+00  0.673542286843E+00  0.680672982163E+00  0.685092885903E+00  0.686507767297E+00
  0.684633753990E+00  0.679206454047E+00  0.669991613151E+00  0.656797280682E+00  0.639487362127E+00
  0.617996307123E+00  0.592344517474E+00  0.562653853872E+00  0.529162371385E+00  0.492237122767E+00
  0.452383540380E+00  0.410249553730E+00  0.366622240832E+00  0.322414480505E+00  0.278638816651E+00
  0.236365630232E+00  0.196662826353E+00  0.160514690752E+00  0.128718481301E+00  0.101758840740E+00
  0.796622930107E-01  0.618996806998E-01  0.477337869701E-01  0.365200176660E-01  0.277117891071E-01
  0.208489015311E-01  0.155467424512E-01  0.114863554853E-01  0.840538232380E-02  0.608986718530E-02
  0.436690064696E-02  0.309807144818E-02  0.217368867312E-02  0.150773176296E-02  0.103348150522E-02
  0.699781386377E-03  0.467875601388E-03  0.308767798062E-03  0.201043532453E-03  0.129099560764E-03
  0.817245285825E-04  0.509782585048E-04  0.313205041991E-04  0.189444968809E-04  0.112755896553E-04
  0.660053608659E-05  0.379816933254E-05  0.214725961633E-05  0.119194911443E-05  0.649275564988E-06
  0.346833657428E-06  0.181570188687E-06  0.930888097710E-07  0.467054387259E-07  0.229156227525E-07
  0.109864617440E-07  0.514286330779E-08  0.234867929426E-08  0.104557837096E-08  0.453354503961E-09
  0.191290583853E-09  0.784766415488E-10  0.312741548462E-10  0.120955583502E-10  0.453572841124E-11
  0.164748908891E-11  0.579046173683E-12  0.196727964981E-12  0.645377660077E-13  0.204208658028E-13
  0.622512818218E-14  0.182608606554E-14  0.514826036349E-15  0.139320671753E-15  0.361424164269E-16
  0.897587451192E-17  0.213101089599E-17
 pseudo wavefunction
  0.160830388902E-03  0.166060191892E-03  0.171460055025E-03  0.177035508233E-03  0.182792261265E-03
  0.188736209540E-03  0.194873440179E-03  0.201210238243E-03  0.207753093165E-03  0.214508705400E-03
  0.221483993284E-03  0.228686100121E-03  0.236122401496E-03  0.243800512831E-03  0.251728297180E-03
  0.259913873287E-03  0.268365623896E-03  0.277092204335E-03  0.286102551383E-03  0.295405892422E-03
  0.305011754883E-03  0.314929976006E-03  0.325170712913E-03  0.335744453011E-03  0.346662024730E-03
  0.357934608614E-03  0.369573748769E-03  0.381591364688E-03  0.393999763455E-03  0.406811652347E-03
  0.420040151854E-03  0.433698809108E-03  0.447801611759E-03  0.462363002303E-03  0.477397892866E-03
  0.492921680481E-03  0.508950262851E-03  0.525500054633E-03  0.542588004248E-03  0.560231611234E-03
  0.578448944170E-03  0.597258659181E-03  0.616680019038E-03  0.636732912890E-03  0.657437876629E-03
  0.678816113921E-03  0.700889517920E-03  0.723680693691E-03  0.747212981354E-03  0.771510479990E-03
  0.796598072320E-03  0.822501450184E-03  0.849247140853E-03  0.876862534198E-03  0.905375910732E-03
  0.934816470577E-03  0.965214363364E-03  0.996600719112E-03  0.102900768010E-02  0.106246843379E-02
  0.109701724681E-02  0.113268950003E-02  0.116952172485E-02  0.120755164051E-02  0.124681819283E-02
  0.128736159401E-02  0.132922336383E-02  0.137244637220E-02  0.141707488302E-02  0.146315459952E-02
  0.151073271108E-02  0.155985794152E-02  0.161058059903E-02  0.166295262767E-02  0.171702766054E-02
  0.177286107475E-02  0.183051004809E-02  0.189003361758E-02  0.195149273995E-02  0.201495035404E-02
  0.208047144523E-02  0.214812311204E-02  0.221797463479E-02  0.229009754654E-02  0.236456570636E-02
  0.244145537497E-02  0.252084529277E-02  0.260281676051E-02  0.268745372256E-02  0.277484285277E-02
  0.286507364333E-02  0.295823849629E-02  0.305443281827E-02  0.315375511806E-02  0.325630710752E-02
  0.336219380571E-02  0.347152364641E-02  0.358440858912E-02  0.370096423371E-02  0.382130993873E-02
  0.394556894363E-02  0.407386849489E-02  0.420633997633E-02  0.434311904355E-02  0.448434576282E-02
  0.463016475444E-02  0.478072534078E-02  0.493618169910E-02  0.509669301935E-02  0.526242366713E-02
  0.543354335185E-02  0.561022730042E-02  0.579265643660E-02  0.598101756610E-02  0.617550356772E-02
  0.637631359070E-02  0.658365325848E-02  0.679773487907E-02  0.701877766218E-02  0.724700794350E-02
  0.748265941619E-02  0.772597336985E-02  0.797719893729E-02  0.823659334931E-02  0.850442219764E-02
  0.878095970651E-02  0.906648901292E-02  0.936130245608E-02  0.966570187613E-02  0.997999892257E-02
  0.103045153727E-01  0.106395834601E-01  0.109855462145E-01  0.113427578113E-01  0.117115839337E-01
  0.120924021458E-01  0.124856022781E-01  0.128915868249E-01  0.133107713549E-01  0.137435849354E-01
  0.141904705693E-01  0.146518856467E-01  0.151283024109E-01  0.156202084397E-01  0.161281071411E-01
  0.166525182665E-01  0.171939784388E-01  0.177530416984E-01  0.183302800662E-01  0.189262841247E-01
  0.195416636178E-01  0.201770480693E-01  0.208330874216E-01  0.215104526943E-01  0.222098366635E-01
  0.229319545636E-01  0.236775448098E-01  0.244473697449E-01  0.252422164084E-01  0.260628973302E-01
  0.269102513498E-01  0.277851444599E-01  0.286884706770E-01  0.296211529395E-01  0.305841440322E-01
  0.315784275413E-01  0.326050188366E-01  0.336649660857E-01  0.347593512983E-01  0.358892914019E-01
  0.370559393507E-01  0.382604852678E-01  0.395041576207E-01  0.407882244333E-01  0.421139945320E-01
  0.434828188298E-01  0.448960916469E-01  0.463552520695E-01  0.478617853485E-01  0.494172243362E-01
  0.510231509649E-01  0.526811977655E-01  0.543930494284E-01  0.561604444062E-01  0.579851765591E-01
  0.598690968441E-01  0.618141150472E-01  0.638222015593E-01  0.658953891970E-01  0.680357750662E-01
  0.702455224707E-01  0.725268628643E-01  0.748820978459E-01  0.773136011976E-01  0.798238209646E-01
  0.824152815759E-01  0.850905860048E-01  0.878524179664E-01  0.907035441518E-01  0.936468164950E-01
  0.966851744706E-01  0.998216474186E-01  0.103059356893E+00  0.106401519028E+00  0.109851446922E+00
  0.113412553020E+00  0.117088351513E+00  0.120882460714E+00  0.124798605433E+00  0.128840619318E+00
  0.133012447167E+00  0.137318147193E+00  0.141761893219E+00  0.146347976809E+00  0.151080809300E+00
  0.155964923717E+00  0.161004976567E+00  0.166205749460E+00  0.171572150562E+00  0.177109215827E+00
  0.182822109987E+00  0.188716127265E+00  0.194796691761E+00  0.201069357487E+00  0.207539807982E+00
  0.214213855467E+00  0.221097439481E+00  0.228196624925E+00  0.235517599460E+00  0.243066670158E+00
  0.250850259345E+00  0.258874899533E+00  0.267147227326E+00  0.275673976216E+00  0.284461968124E+00
  0.293518103556E+00  0.302849350245E+00  0.312462730097E+00  0.322365304286E+00  0.332564156307E+00
  0.343066372777E+00  0.353879021771E+00  0.365009128457E+00  0.376463647762E+00  0.388249433805E+00
  0.400373205790E+00  0.412841510047E+00  0.425660677866E+00  0.438836778782E+00  0.452375568893E+00
  0.466282433832E+00  0.480562325923E+00  0.495219695099E+00  0.510258413079E+00  0.525681690312E+00
  0.541491985188E+00  0.557690904962E+00  0.574279097891E+00  0.591256136012E+00  0.608620388063E+00
  0.626368882004E+00  0.644497156675E+00  0.662999102129E+00  0.681866788257E+00  0.701090281410E+00
  0.720657448797E+00  0.740553750605E+00  0.760762019925E+00  0.781262230792E+00  0.802031254888E+00
  0.823042607749E+00  0.844266185689E+00  0.865667995068E+00  0.887209876011E+00  0.908849223289E+00
  0.930538707691E+00  0.952226001994E+00  0.973853516483E+00  0.995358149896E+00  0.101667106275E+01
  0.103771748113E+01  0.105841654027E+01  0.107868117856E+01  0.109841809393E+01  0.111752777605E+01
  0.113590462904E+01  0.115343720053E+01  0.117000853427E+01  0.118549666385E+01  0.119977526579E+01
  0.121271448957E+01  0.122418198156E+01  0.123404411713E+01  0.124216745193E+01  0.124842039825E+01
  0.125267512471E+01  0.125480966805E+01  0.125471023314E+01  0.125227364126E+01  0.124740986714E+01
  0.124004458200E+01  0.123012159170E+01  0.121760502835E+01  0.120248111808E+01  0.118475931097E+01
  0.116447252090E+01  0.114167618667E+01  0.111644583565E+01  0.108887281059E+01  0.105905781756E+01
  0.102710197526E+01  0.993095103523E+00  0.957101094214E+00  0.919137023555E+00  0.879248328914E+00
  0.837744495328E+00  0.795010598363E+00  0.751424880904E+00  0.707354460142E+00  0.663151435114E+00
  0.619149394096E+00  0.575660347335E+00  0.532972092694E+00  0.491346015016E+00  0.451015317645E+00
  0.412183686514E+00  0.375024393973E+00  0.339679856175E+00  0.306261662867E+00  0.274851096968E+00
  0.245500151070E+00  0.218233029731E+00  0.193048101386E+00  0.169920237654E+00  0.148803454886E+00
  0.129633757224E+00  0.112332074235E+00  0.968071894744E-01  0.829585677231E-01  0.706790060446E-01
  0.598570546476E-01  0.503791754884E-01  0.421316271903E-01  0.350020820645E-01  0.288809931081E-01
  0.236627349644E-01  0.192465432533E-01  0.155372728808E-01  0.124459901178E-01  0.989040767044E-02
  0.779516833058E-02  0.609198185326E-02  0.471962128293E-02  0.362378826583E-02  0.275686090580E-02
  0.207754149449E-02  0.155042427987E-02  0.114550495393E-02  0.837653656425E-03  0.606072132115E-03
  0.433753502441E-03  0.306960235585E-03  0.214732639455E-03  0.148436848746E-03  0.101358064231E-03
  0.683419047636E-04  0.454842641240E-04
 ae wavefunction
 -0.243465150019E-02 -0.251103632889E-02 -0.258980833663E-02 -0.267104153429E-02 -0.275481218930E-02
 -0.284119889199E-02 -0.293028262381E-02 -0.302214682734E-02 -0.311687747819E-02 -0.321456315876E-02
 -0.331529513398E-02 -0.341916742902E-02 -0.352627690894E-02 -0.363672336044E-02 -0.375060957565E-02
 -0.386804143805E-02 -0.398912801046E-02 -0.411398162520E-02 -0.424271797656E-02 -0.437545621528E-02
 -0.451231904538E-02 -0.465343282330E-02 -0.479892765919E-02 -0.494893752066E-02 -0.510360033865E-02
 -0.526305811585E-02 -0.542745703727E-02 -0.559694758337E-02 -0.577168464521E-02 -0.595182764241E-02
 -0.613754064301E-02 -0.632899248599E-02 -0.652635690594E-02 -0.672981266007E-02 -0.693954365751E-02
 -0.715573909082E-02 -0.737859356972E-02 -0.760830725690E-02 -0.784508600595E-02 -0.808914150128E-02
 -0.834069139992E-02 -0.859995947522E-02 -0.886717576218E-02 -0.914257670439E-02 -0.942640530248E-02
 -0.971891126381E-02 -0.100203511533E-01 -0.103309885451E-01 -0.106510941755E-01 -0.109809460953E-01
 -0.113208298238E-01 -0.116710385015E-01 -0.120318730435E-01 -0.124036422912E-01 -0.127866631644E-01
 -0.131812608104E-01 -0.135877687526E-01 -0.140065290361E-01 -0.144378923707E-01 -0.148822182709E-01
 -0.153398751915E-01 -0.158112406588E-01 -0.162967013973E-01 -0.167966534493E-01 -0.173115022890E-01
 -0.178416629282E-01 -0.183875600138E-01 -0.189496279164E-01 -0.195283108078E-01 -0.201240627269E-01
 -0.207373476338E-01 -0.213686394486E-01 -0.220184220759E-01 -0.226871894116E-01 -0.233754453322E-01
 -0.240837036632E-01 -0.248124881259E-01 -0.255623322611E-01 -0.263337793264E-01 -0.271273821658E-01
 -0.279437030494E-01 -0.287833134803E-01 -0.296467939669E-01 -0.305347337565E-01 -0.314477305293E-01
 -0.323863900478E-01 -0.333513257598E-01 -0.343431583505E-01 -0.353625152410E-01 -0.364100300287E-01
 -0.374863418662E-01 -0.385920947733E-01 -0.397279368791E-01 -0.408945195884E-01 -0.420924966678E-01
 -0.433225232462E-01 -0.445852547240E-01 -0.458813455858E-01 -0.472114481095E-01 -0.485762109673E-01
 -0.499762777087E-01 -0.514122851231E-01 -0.528848614698E-01 -0.543946245720E-01 -0.559421797643E-01
 -0.575281176864E-01 -0.591530119146E-01 -0.608174164219E-01 -0.625218628579E-01 -0.642668576387E-01
 -0.660528788369E-01 -0.678803728623E-01 -0.697497509224E-01 -0.716613852524E-01 -0.736156051032E-01
 -0.756126924779E-01 -0.776528776032E-01 -0.797363341270E-01 -0.818631740289E-01 -0.840334422321E-01
 -0.862471109068E-01 -0.885040734515E-01 -0.908041381429E-01 -0.931470214417E-01 -0.955323409444E-01
 -0.979596079710E-01 -0.100428219778E+00 -0.102937451388E+00 -0.105486447029E+00 -0.108074211172E+00
 -0.110699599164E+00 -0.113361307458E+00 -0.116057863414E+00 -0.118787614706E+00 -0.121548718294E+00
 -0.124339129003E+00 -0.127156587681E+00 -0.129998608972E+00 -0.132862468696E+00 -0.135745190861E+00
 -0.138643534324E+00 -0.141553979129E+00 -0.144472712540E+00 -0.147395614816E+00 -0.150318244766E+00
 -0.153235825118E+00 -0.156143227779E+00 -0.159034959026E+00 -0.161905144708E+00 -0.164747515542E+00
 -0.167555392586E+00 -0.170321672987E+00 -0.173038816119E+00 -0.175698830236E+00 -0.178293259765E+00
 -0.180813173397E+00 -0.183249153142E+00 -0.185591284505E+00 -0.187829148009E+00 -0.189951812244E+00
 -0.191947828691E+00 -0.193805228551E+00 -0.195511521851E+00 -0.197053699101E+00 -0.198418235811E+00
 -0.199591100173E+00 -0.200557764258E+00 -0.201303219077E+00 -0.201811993884E+00 -0.202068180104E+00
 -0.202055460309E+00 -0.201757142643E+00 -0.201156201148E+00 -0.200235322435E+00 -0.198976959143E+00
 -0.197363390649E+00 -0.195376791500E+00 -0.192999308001E+00 -0.190213143421E+00 -0.187000652243E+00
 -0.183344443859E+00 -0.179227496112E+00 -0.174633278998E+00 -0.169545888844E+00 -0.163950193198E+00
 -0.157831986586E+00 -0.151178157248E+00 -0.143976864824E+00 -0.136217728907E+00 -0.127892028207E+00
 -0.118992909969E+00 -0.109515609115E+00 -0.994576764227E-01 -0.888192148323E-01 -0.776031227969E-01
 -0.658153433324E-01 -0.534651171801E-01 -0.405652382278E-01 -0.271323090551E-01 -0.131869941956E-01
  0.124573154418E-02  0.161363425911E-01  0.314505329792E-01  0.471490007510E-01  0.631872496290E-01
  0.795154113219E-01  0.960780920529E-01  0.112814247317E+00  0.129657089498E+00  0.146534033766E+00
  0.163366688512E+00  0.180070897248E+00  0.196556839345E+00  0.212729196950E+00  0.228487394988E+00
  0.243725920264E+00  0.258334724543E+00  0.272199715397E+00  0.285203337723E+00  0.297225248214E+00
  0.308143084537E+00  0.317833330280E+00  0.326172275808E+00  0.333037073968E+00  0.338306888237E+00
  0.341864129405E+00  0.343595775348E+00  0.343394766750E+00  0.341161469870E+00  0.336805195556E+00
  0.330245761665E+00  0.321415083917E+00  0.310258778007E+00  0.296737753536E+00  0.280829778085E+00
  0.262530987574E+00  0.241857317101E+00  0.218845824672E+00  0.193555878927E+00  0.166070181039E+00
  0.136495590658E+00  0.104963725900E+00  0.716313080424E-01  0.366802225855E-01  0.317269774643E-03
 -0.372264199410E-01 -0.756963253361E-01 -0.114815839120E+00 -0.154287931598E+00 -0.193797142903E+00
 -0.233011848798E+00 -0.271586735730E+00 -0.309165446798E+00 -0.345383430367E+00 -0.379871113401E+00
 -0.412257561396E+00 -0.442174696492E+00 -0.469261945107E+00 -0.493171036453E+00 -0.513570699727E+00
 -0.530151143864E+00 -0.542628305158E+00 -0.550747863875E+00 -0.554288999217E+00 -0.553067816766E+00
 -0.546940366031E+00 -0.535805169856E+00 -0.519605205061E+00 -0.498329297923E+00 -0.472012920320E+00
 -0.440738391031E+00 -0.404634499929E+00 -0.363875582020E+00 -0.318680073774E+00 -0.269308587083E+00
 -0.216061537094E+00 -0.159276359023E+00 -0.993243478380E-01 -0.366071522804E-01  0.284470457282E-01
  0.953876353896E-01  0.163745930990E+00  0.233039736641E+00  0.302778075829E+00  0.372466032217E+00
  0.441609642679E+00  0.509720782712E+00  0.576321990670E+00  0.640951191914E+00  0.703166298968E+00
  0.762549669442E+00  0.818712376069E+00  0.871298162008E+00  0.919986814687E+00  0.964496544100E+00
  0.100458492800E+01  0.104004825667E+01  0.107071971502E+01  0.109646749282E+01  0.111719408716E+01
  0.113283744712E+01  0.114337357659E+01  0.114881947750E+01  0.114923534954E+01  0.114472544631E+01
  0.113543752937E+01  0.112156113908E+01  0.110332494518E+01  0.108099338838E+01  0.105486276346E+01
  0.102525685297E+01  0.992522216195E+00  0.957023233680E+00  0.919137023555E+00  0.879248328914E+00
  0.837744495328E+00  0.795010598363E+00  0.751424880904E+00  0.707354460142E+00  0.663151435114E+00
  0.619149394096E+00  0.575660347335E+00  0.532972092694E+00  0.491346015016E+00  0.451015317645E+00
  0.412183686514E+00  0.375024393973E+00  0.339679856175E+00  0.306261662867E+00  0.274851096968E+00
  0.245500151070E+00  0.218233029731E+00  0.193048101386E+00  0.169920237654E+00  0.148803454886E+00
  0.129633757224E+00  0.112332074235E+00  0.968071894744E-01  0.829585677231E-01  0.706790060446E-01
  0.598570546476E-01  0.503791754884E-01  0.421316271903E-01  0.350020820645E-01  0.288809931081E-01
  0.236627349644E-01  0.192465432533E-01  0.155372728808E-01  0.124459901178E-01  0.989040767044E-02
  0.779516833058E-02  0.609198185326E-02  0.471962128293E-02  0.362378826583E-02  0.275686090580E-02
  0.207754149449E-02  0.155042427987E-02  0.114550495393E-02  0.837653656425E-03  0.606072132115E-03
  0.433753502441E-03  0.306960235585E-03  0.214732639455E-03  0.148436848746E-03  0.101358064231E-03
  0.683419047636E-04  0.454842641240E-04
 pseudo wavefunction
  0.185907996343E-03  0.191953260560E-03  0.198195101684E-03  0.204639911905E-03  0.211294291272E-03
  0.218165054450E-03  0.225259237701E-03  0.232584106086E-03  0.240147160910E-03  0.247956147402E-03
  0.256019062644E-03  0.264344163766E-03  0.272939976398E-03  0.281815303400E-03  0.290979233883E-03
  0.300441152509E-03  0.310210749109E-03  0.320298028601E-03  0.330713321238E-03  0.341467293188E-03
  0.352570957456E-03  0.364035685159E-03  0.375873217179E-03  0.388095676178E-03  0.400715579019E-03
  0.413745849581E-03  0.427199831994E-03  0.441091304306E-03  0.455434492594E-03  0.470244085528E-03
  0.485535249419E-03  0.501323643748E-03  0.517625437200E-03  0.534457324227E-03  0.551836542142E-03
  0.569780888771E-03  0.588308740680E-03  0.607439071994E-03  0.627191473829E-03  0.647586174353E-03
  0.668644059504E-03  0.690386694374E-03  0.712836345300E-03  0.736016002660E-03  0.759949404421E-03
  0.784661060448E-03  0.810176277603E-03  0.836521185660E-03  0.863722764068E-03  0.891808869574E-03
  0.920808264757E-03  0.950750647476E-03  0.981666681290E-03  0.101358802685E-02  0.104654737434E-02
  0.108057847692E-02  0.111571618533E-02  0.115199648356E-02  0.118945652571E-02  0.122813467400E-02
  0.126807053811E-02  0.130930501573E-02  0.135188033439E-02  0.139584009479E-02  0.144122931535E-02
  0.148809447842E-02  0.153648357777E-02  0.158644616783E-02  0.163803341437E-02  0.169129814695E-02
  0.174629491296E-02  0.180308003353E-02  0.186171166118E-02  0.192224983938E-02  0.198475656402E-02
  0.204929584691E-02  0.211593378130E-02  0.218473860963E-02  0.225578079331E-02  0.232913308497E-02
  0.240487060288E-02  0.248307090791E-02  0.256381408296E-02  0.264718281492E-02  0.273326247937E-02
  0.282214122800E-02  0.291391007886E-02  0.300866300956E-02  0.310649705350E-02  0.320751239920E-02
  0.331181249293E-02  0.341950414457E-02  0.353069763703E-02  0.364550683911E-02  0.376404932212E-02
  0.388644648021E-02  0.401282365472E-02  0.414331026243E-02  0.427803992812E-02  0.441715062131E-02
  0.456078479754E-02  0.470908954420E-02  0.486221673107E-02  0.502032316581E-02  0.518357075448E-02
  0.535212666722E-02  0.552616350941E-02  0.570585949830E-02  0.589139864541E-02  0.608297094490E-02
  0.628077256796E-02  0.648500606357E-02  0.669588056581E-02  0.691361200781E-02  0.713842334272E-02
  0.737054477179E-02  0.761021397995E-02  0.785767637889E-02  0.811318535814E-02  0.837700254425E-02
  0.864939806838E-02  0.893065084255E-02  0.922104884487E-02  0.952088941398E-02  0.983047955309E-02
  0.101501362438E-01  0.104801867700E-01  0.108209690527E-01  0.111728319950E-01  0.115361358387E-01
  0.119112525324E-01  0.122985661114E-01  0.126984730898E-01  0.131113828657E-01  0.135377181385E-01
  0.139779153412E-01  0.144324250851E-01  0.149017126197E-01  0.153862583074E-01  0.158865581132E-01
  0.164031241101E-01  0.169364850014E-01  0.174871866589E-01  0.180557926789E-01  0.186428849563E-01
  0.192490642762E-01  0.198749509254E-01  0.205211853231E-01  0.211884286713E-01  0.218773636272E-01
  0.225886949952E-01  0.233231504431E-01  0.240814812388E-01  0.248644630128E-01  0.256728965423E-01
  0.265076085626E-01  0.273694526021E-01  0.282593098451E-01  0.291780900208E-01  0.301267323205E-01
  0.311062063437E-01  0.321175130737E-01  0.331616858832E-01  0.342397915715E-01  0.353529314341E-01
  0.365022423643E-01  0.376888979896E-01  0.389141098426E-01  0.401791285675E-01  0.414852451632E-01
  0.428337922641E-01  0.442261454590E-01  0.456637246502E-01  0.471479954520E-01  0.486804706309E-01
  0.502627115881E-01  0.518963298849E-01  0.535829888119E-01  0.553244050034E-01  0.571223500971E-01
  0.589786524407E-01  0.608951988450E-01  0.628739363857E-01  0.649168742533E-01  0.670260856520E-01
  0.692037097489E-01  0.714519536724E-01  0.737730945613E-01  0.761694816645E-01  0.786435384909E-01
  0.811977650096E-01  0.838347399007E-01  0.865571228547E-01  0.893676569213E-01  0.922691709054E-01
  0.952645818103E-01  0.983568973242E-01  0.101549218351E+00  0.104844741580E+00  0.108246762095E+00
  0.111758676014E+00  0.115383983162E+00  0.119126289769E+00  0.122989311184E+00  0.126976874613E+00
  0.131092921850E+00  0.135341512018E+00  0.139726824301E+00  0.144253160644E+00  0.148924948436E+00
  0.153746743144E+00  0.158723230881E+00  0.163859230912E+00  0.169159698059E+00  0.174629724995E+00
  0.180274544406E+00  0.186099530986E+00  0.192110203251E+00  0.198312225129E+00  0.204711407301E+00
  0.211313708249E+00  0.218125234968E+00  0.225152243302E+00  0.232401137851E+00  0.239878471383E+00
  0.247590943708E+00  0.255545399917E+00  0.263748827944E+00  0.272208355338E+00  0.280931245174E+00
  0.289924890985E+00  0.299196810630E+00  0.308754638945E+00  0.318606119076E+00  0.328759092328E+00
  0.339221486386E+00  0.350001301728E+00  0.361106596044E+00  0.372545466466E+00  0.384326029370E+00
  0.396456397536E+00  0.408944654372E+00  0.421798824951E+00  0.435026843540E+00  0.448636517294E+00
  0.462635485769E+00  0.477031175867E+00  0.491830751812E+00  0.507041059719E+00  0.522668566298E+00
  0.538719291204E+00  0.555198732505E+00  0.572111784736E+00  0.589462648952E+00  0.607254734198E+00
  0.625490549765E+00  0.644171587607E+00  0.663298194265E+00  0.682869431654E+00  0.702882926051E+00
  0.723334704666E+00  0.744219019180E+00  0.765528155681E+00  0.787252230516E+00  0.809378971623E+00
  0.831893485062E+00  0.854778006575E+00  0.878011638212E+00  0.901570070276E+00  0.925425289112E+00
  0.949545271624E+00  0.973893667756E+00  0.998429472699E+00  0.102310669109E+01  0.104787399617E+01
  0.107267438745E+01  0.109744485162E+01  0.112211603186E+01  0.114661191231E+01  0.117084952534E+01
  0.119473869042E+01  0.121818179526E+01  0.124107363079E+01  0.126330129342E+01  0.128474416943E+01
  0.130527401796E+01  0.132475517016E+01  0.134304486350E+01  0.135999373106E+01  0.137544646563E+01
  0.138924267857E+01  0.140121797170E+01  0.141120523836E+01  0.141903620557E+01  0.142454322372E+01
  0.142756130186E+01  0.142793037626E+01  0.142549778597E+01  0.142012091181E+01  0.141166991447E+01
  0.140003048194E+01  0.138510646772E+01  0.136682226862E+01  0.134512475484E+01  0.131998452848E+01
  0.129139624957E+01  0.125937773602E+01  0.122396751937E+01  0.118522052740E+01  0.114320157586E+01
  0.109797639312E+01  0.104959998519E+01  0.998102286855E+00  0.943471249599E+00  0.885717058910E+00
  0.825128416315E+00  0.762055369516E+00  0.696824267306E+00  0.000000000000E+00  0.000000000000E+00
  0.000000000000E+00  0.000000000000E+00  0.000000000000E+00  0.000000000000E+00  0.000000000000E+00
  0.000000000000E+00  0.000000000000E+00  0.000000000000E+00  0.000000000000E+00  0.000000000000E+00
  0.000000000000E+00  0.000000000000E+00  0.000000000000E+00  0.000000000000E+00  0.000000000000E+00
  0.000000000000E+00  0.000000000000E+00  0.000000000000E+00  0.000000000000E+00  0.000000000000E+00
  0.000000000000E+00  0.000000000000E+00  0.000000000000E+00  0.000000000000E+00  0.000000000000E+00
  0.000000000000E+00  0.000000000000E+00  0.000000000000E+00  0.000000000000E+00  0.000000000000E+00
  0.000000000000E+00  0.000000000000E+00  0.000000000000E+00  0.000000000000E+00  0.000000000000E+00
  0.000000000000E+00  0.000000000000E+00  0.000000000000E+00  0.000000000000E+00  0.000000000000E+00
  0.000000000000E+00  0.000000000000E+00  0.000000000000E+00  0.000000000000E+00  0.000000000000E+00
  0.000000000000E+00  0.000000000000E+00
 ae wavefunction
 -0.279151270619E-02 -0.287909370839E-02 -0.296941179241E-02 -0.306255181735E-02 -0.315860122959E-02
 -0.325765013890E-02 -0.335979139664E-02 -0.346512067607E-02 -0.357373655472E-02 -0.368574059903E-02
 -0.380123745116E-02 -0.392033491809E-02 -0.404314406294E-02 -0.416977929873E-02 -0.430035848441E-02
 -0.443500302343E-02 -0.457383796453E-02 -0.471699210527E-02 -0.486459809787E-02 -0.501679255769E-02
 -0.517371617418E-02 -0.533551382456E-02 -0.550233468997E-02 -0.567433237438E-02 -0.585166502608E-02
 -0.603449546188E-02 -0.622299129396E-02 -0.641732505954E-02 -0.661767435293E-02 -0.682422196078E-02
 -0.703715599951E-02 -0.725667005576E-02 -0.748296332936E-02 -0.771624077897E-02 -0.795671327028E-02
 -0.820459772688E-02 -0.846011728348E-02 -0.872350144173E-02 -0.899498622829E-02 -0.927481435532E-02
 -0.956323538304E-02 -0.986050588444E-02 -0.101668896120E-01 -0.104826576662E-01 -0.108080886654E-01
 -0.111434689180E-01 -0.114890925950E-01 -0.118452619041E-01 -0.122122872646E-01 -0.125904874829E-01
 -0.129801899282E-01 -0.133817307082E-01 -0.137954548446E-01 -0.142217164473E-01 -0.146608788885E-01
 -0.151133149742E-01 -0.155794071138E-01 -0.160595474877E-01 -0.165541382110E-01 -0.170635914940E-01
 -0.175883297975E-01 -0.181287859838E-01 -0.186854034613E-01 -0.192586363222E-01 -0.198489494727E-01
 -0.204568187548E-01 -0.210827310579E-01 -0.217271844200E-01 -0.223906881171E-01 -0.230737627386E-01
 -0.237769402489E-01 -0.245007640327E-01 -0.252457889221E-01 -0.260125812055E-01 -0.268017186141E-01
 -0.276137902866E-01 -0.284493967080E-01 -0.293091496221E-01 -0.301936719131E-01 -0.311035974571E-01
 -0.320395709376E-01 -0.330022476244E-01 -0.339922931123E-01 -0.350103830158E-01 -0.360572026182E-01
 -0.371334464697E-01 -0.382398179316E-01 -0.393770286638E-01 -0.405457980489E-01 -0.417468525508E-01
 -0.429809250026E-01 -0.442487538176E-01 -0.455510821207E-01 -0.468886567920E-01 -0.482622274194E-01
 -0.496725451520E-01 -0.511203614501E-01 -0.526064267232E-01 -0.541314888506E-01 -0.556962915760E-01
 -0.573015727696E-01 -0.589480625496E-01 -0.606364812533E-01 -0.623675372510E-01 -0.641419245934E-01
 -0.659603204813E-01 -0.678233825499E-01 -0.697317459568E-01 -0.716860202628E-01 -0.736867860952E-01
 -0.757345915821E-01 -0.778299485461E-01 -0.799733284463E-01 -0.821651580549E-01 -0.844058148579E-01
 -0.866956221654E-01 -0.890348439203E-01 -0.914236791909E-01 -0.938622563351E-01 -0.963506268232E-01
 -0.988887587053E-01 -0.101476529711E+00 -0.104113719966E+00 -0.106800004320E+00 -0.109534944262E+00
 -0.112317979423E+00 -0.115148418646E+00 -0.118025430619E+00 -0.120948034058E+00 -0.123915087429E+00
 -0.126925278214E+00 -0.129977111697E+00 -0.133068899285E+00 -0.136198746343E+00 -0.139364539568E+00
 -0.142563933878E+00 -0.145794338844E+00 -0.149052904664E+00 -0.152336507693E+00 -0.155641735555E+00
 -0.158964871843E+00 -0.162301880453E+00 -0.165648389574E+00 -0.168999675374E+00 -0.172350645434E+00
 -0.175695821977E+00 -0.179029324961E+00 -0.182344855100E+00 -0.185635676897E+00 -0.188894601784E+00
 -0.192113971459E+00 -0.195285641550E+00 -0.198400965718E+00 -0.201450780348E+00 -0.204425389986E+00
 -0.207314553677E+00 -0.210107472412E+00 -0.212792777875E+00 -0.215358522707E+00 -0.217792172548E+00
 -0.220080600092E+00 -0.222210081455E+00 -0.224166295151E+00 -0.225934323988E+00 -0.227498660250E+00
 -0.228843214502E+00 -0.229951328435E+00 -0.230805792132E+00 -0.231388866204E+00 -0.231682309227E+00
 -0.231667410969E+00 -0.231325031869E+00 -0.230635649279E+00 -0.229579410978E+00 -0.228136196479E+00
 -0.226285686654E+00 -0.224007442195E+00 -0.221280991455E+00 -0.218085928154E+00 -0.214402019457E+00
 -0.210209324905E+00 -0.205488326605E+00 -0.200220071107E+00 -0.194386323274E+00 -0.187969732442E+00
 -0.180954011053E+00 -0.173324125867E+00 -0.165066501752E+00 -0.156169237913E+00 -0.146622336321E+00
 -0.136417941883E+00 -0.125550593783E+00 -0.114017487175E+00 -0.101818744215E+00 -0.889576931677E-01
 -0.754411540585E-01 -0.612797290440E-01 -0.464880953801E-01 -0.310852985375E-01 -0.150950427050E-01
  0.145402437160E-02  0.185280355182E-01  0.360876407198E-01  0.540877597907E-01  0.724773548468E-01
  0.911992264402E-01  0.110189837473E+00  0.129379169483E+00  0.148690616625E+00  0.168040923553E+00
  0.187340174393E+00  0.206491840755E+00  0.225392897234E+00  0.243934012839E+00  0.261999826262E+00
  0.279469311896E+00  0.296216242212E+00  0.312109750832E+00  0.327014999651E+00  0.340793952629E+00
  0.353306258282E+00  0.364410242083E+00  0.373964008967E+00  0.381826654725E+00  0.387859583540E+00
  0.391927927192E+00  0.393902059708E+00  0.393659199265E+00  0.391085087164E+00  0.386075731470E+00
  0.378539200623E+00  0.368397449842E+00  0.355588160617E+00  0.340066570997E+00  0.321807271813E+00
  0.300805941439E+00  0.277080989500E+00  0.250675077833E+00  0.221656485549E+00  0.190120283940E+00
  0.156189286622E+00  0.120014740457E+00  0.817767235213E-01  0.416842175459E-01 -0.251761182720E-04
 -0.430859052453E-01 -0.872055430150E-01 -0.132066283859E+00 -0.177326851708E+00 -0.222624785890E+00
 -0.267579041742E+00 -0.311792832321E+00 -0.354856667503E+00 -0.396351627161E+00 -0.435853008725E+00
 -0.472934534943E+00 -0.507173203922E+00 -0.538154633721E+00 -0.565478581846E+00 -0.588764350475E+00
 -0.607655944399E+00 -0.621826964974E+00 -0.630985241384E+00 -0.634877164054E+00 -0.633291644572E+00
 -0.626063607583E+00 -0.613076924838E+00 -0.594266721822E+00 -0.569621015115E+00 -0.539181664140E+00
 -0.503044642264E+00 -0.461359647414E+00 -0.414329082811E+00 -0.362206444730E+00 -0.305294157365E+00
 -0.243940895948E+00 -0.178538437809E+00 -0.109518079680E+00 -0.373466567287E-01  0.374778017188E-01
  0.114430744901E+00  0.192966063311E+00  0.272521297233E+00  0.352523038822E+00  0.432392466580E+00
  0.511550944793E+00  0.589425619428E+00  0.665454949175E+00  0.739094126975E+00  0.809820364349E+00
  0.877138016822E+00  0.940583496682E+00  0.999729825579E+00  0.105419051918E+01  0.110362232878E+01
  0.114772634146E+01  0.118624725419E+01  0.121897133149E+01  0.124572429779E+01  0.126637060121E+01
  0.128081476977E+01  0.128900439549E+01  0.129093345024E+01  0.128664468674E+01  0.127623043753E+01
  0.125983174157E+01  0.123763604175E+01  0.120987374139E+01  0.117681384597E+01  0.113875884478E+01
  0.109603893735E+01  0.104900570117E+01  0.998025288327E+00  0.943471249599E+00  0.885717058910E+00
  0.825128416315E+00  0.762055369516E+00  0.696824267306E+00  0.000000000000E+00  0.000000000000E+00
  0.000000000000E+00  0.000000000000E+00  0.000000000000E+00  0.000000000000E+00  0.000000000000E+00
  0.000000000000E+00  0.000000000000E+00  0.000000000000E+00  0.000000000000E+00  0.000000000000E+00
  0.000000000000E+00  0.000000000000E+00  0.000000000000E+00  0.000000000000E+00  0.000000000000E+00
  0.000000000000E+00  0.000000000000E+00  0.000000000000E+00  0.000000000000E+00  0.000000000000E+00
  0.000000000000E+00  0.000000000000E+00  0.000000000000E+00  0.000000000000E+00  0.000000000000E+00
  0.000000000000E+00  0.000000000000E+00  0.000000000000E+00  0.000000000000E+00  0.000000000000E+00
  0.000000000000E+00  0.000000000000E+00  0.000000000000E+00  0.000000000000E+00  0.000000000000E+00
  0.000000000000E+00  0.000000000000E+00  0.000000000000E+00  0.000000000000E+00  0.000000000000E+00
  0.000000000000E+00  0.000000000000E+00  0.000000000000E+00  0.000000000000E+00  0.000000000000E+00
  0.000000000000E+00  0.000000000000E+00
 pseudo wavefunction
  0.956571442021E-08  0.101979354294E-07  0.108719414414E-07  0.115904941270E-07  0.123565376828E-07
  0.131732108942E-07  0.140438599965E-07  0.149720523859E-07  0.159615912359E-07  0.170165310814E-07
  0.181411944307E-07  0.193401894775E-07  0.206184289817E-07  0.219811503995E-07  0.234339373429E-07
  0.249827424584E-07  0.266339118170E-07  0.283942109168E-07  0.302708524038E-07  0.322715256251E-07
  0.344044281351E-07  0.366782992842E-07  0.391024560274E-07  0.416868310993E-07  0.444420137130E-07
  0.473792929478E-07  0.505107040051E-07  0.538490775219E-07  0.574080921423E-07  0.612023305646E-07
  0.652473392927E-07  0.695596923358E-07  0.741570591189E-07  0.790582768816E-07  0.842834278612E-07
  0.898539215782E-07  0.957925825591E-07  0.102123743858E-06  0.108873346757E-06  0.116069047061E-06
  0.123740328413E-06  0.131918623096E-06  0.140637440833E-06  0.149932506079E-06  0.159841904406E-06
  0.170406238549E-06  0.181668794776E-06  0.193675720245E-06  0.206476212089E-06  0.220122718996E-06
  0.234671156110E-06  0.250181134139E-06  0.266716203602E-06  0.284344115222E-06  0.303137097524E-06
  0.323172152786E-06  0.344531372545E-06  0.367302273959E-06  0.391578158400E-06  0.417458493741E-06
  0.445049321917E-06  0.474463693421E-06  0.505822130510E-06  0.539253121036E-06  0.574893644904E-06
  0.612889735336E-06  0.653397077217E-06  0.696581645003E-06  0.742620382770E-06  0.791701929230E-06
  0.844027390644E-06  0.899811164835E-06  0.959281819650E-06  0.102268302949E-05  0.109027457372E-05
  0.116233340111E-05  0.123915476453E-05  0.132105343079E-05  0.140836497027E-05  0.150144713191E-05
  0.160068130904E-05  0.170647410204E-05  0.181925898434E-05  0.193949807852E-05  0.206768404974E-05
  0.220434212438E-05  0.235003224203E-05  0.250535134977E-05  0.267093584804E-05  0.284746419811E-05
  0.303565970201E-05  0.323629346606E-05  0.345018756033E-05  0.367821838685E-05  0.392132027051E-05
  0.418048928719E-05  0.445678734491E-05  0.475134653477E-05  0.506537376935E-05  0.540015572765E-05
  0.575706412694E-05  0.613756134290E-05  0.654320640122E-05  0.697566136518E-05  0.743669814538E-05
  0.792820575943E-05  0.845219807151E-05  0.901082204329E-05  0.960636653022E-05  0.102412716590E-04
  0.109181388251E-04  0.116397413500E-04  0.124090358443E-04  0.132291743201E-04  0.141035171047E-04
  0.150356466077E-04  0.160293819971E-04  0.170887948461E-04  0.182182258132E-04  0.194223024246E-04
  0.207059580321E-04  0.220744520228E-04  0.235333913646E-04  0.250887535759E-04  0.267469112116E-04
  0.285146579681E-04  0.303992365127E-04  0.324083681512E-04  0.345502844565E-04  0.368337609854E-04
  0.392681532242E-04  0.418634349083E-04  0.446302388725E-04  0.475799006015E-04  0.507245046548E-04
  0.540769341604E-04  0.576509235755E-04  0.614611149337E-04  0.655231178052E-04  0.698535732181E-04
  0.744702218004E-04  0.793919764215E-04  0.846389996307E-04  0.902327862075E-04  0.961962511635E-04
  0.102553823552E-03  0.109331546473E-03  0.116557183674E-03  0.124260333192E-03  0.132472548493E-03
  0.141227467602E-03  0.150560950760E-03  0.160511227154E-03  0.171119051334E-03  0.182427869944E-03
  0.194483999442E-03  0.207336815550E-03  0.221038955187E-03  0.235646531712E-03  0.251219364355E-03
  0.267821222766E-03  0.285520087676E-03  0.304388428719E-03  0.324503500561E-03  0.345947658512E-03
  0.368808694920E-03  0.393180197694E-03  0.419161932410E-03  0.446860249551E-03  0.476388518508E-03
  0.507867590105E-03  0.541426289507E-03  0.577201941491E-03  0.615340930195E-03  0.655999295577E-03
  0.699343369001E-03  0.745550450456E-03  0.794809530144E-03  0.847322057300E-03  0.903302759297E-03
  0.962980514302E-03  0.102659928093E-02  0.109441908860E-02  0.116671709243E-02  0.124378869691E-02
  0.132594875271E-02  0.141353283130E-02  0.150689858236E-02  0.160642717932E-02  0.171252485846E-02
  0.182562455775E-02  0.194618766145E-02  0.207470585735E-02  0.221170311369E-02  0.235773778309E-02
  0.251340484160E-02  0.267933827114E-02  0.285621359421E-02  0.304475057028E-02  0.324571606358E-02
  0.345992709301E-02  0.368825407482E-02  0.393162426991E-02  0.419102544777E-02  0.446750978000E-02
  0.476219797673E-02  0.507628368017E-02  0.541103813001E-02  0.576781511610E-02  0.614805623469E-02
  0.655329646487E-02  0.698517008289E-02  0.744541693242E-02  0.793588906961E-02  0.845855780236E-02
  0.901552114387E-02  0.960901170080E-02  0.102414050173E-01  0.109152283956E-01  0.116331702159E-01
  0.123980897753E-01  0.132130276693E-01  0.140812167357E-01  0.150060935826E-01  0.159913107197E-01
  0.170407493126E-01  0.181585325762E-01  0.193490398241E-01  0.206169211859E-01  0.219671130019E-01
  0.234048539023E-01  0.249357015713E-01  0.265655501922E-01  0.283006485632E-01  0.301476188641E-01
  0.321134760480E-01  0.342056478181E-01  0.364319951389E-01  0.388008332168E-01  0.413209528675E-01
  0.440016421691E-01  0.468527082766E-01  0.498844992499E-01  0.531079257168E-01  0.565344821616E-01
  0.601762675910E-01  0.640460052890E-01  0.681570613234E-01  0.725234614169E-01  0.771599057323E-01
  0.820817810601E-01  0.873051698203E-01  0.928468552118E-01  0.987243217515E-01  0.104955750351E+00
  0.111560006968E+00  0.118556623760E+00  0.125965771536E+00  0.133808222174E+00  0.142105299534E+00
  0.150878817241E+00  0.160151001554E+00  0.169944397400E+00  0.180281755470E+00  0.191185898130E+00
  0.202679561753E+00  0.214785212938E+00  0.227524835979E+00  0.240919688854E+00  0.254990024977E+00
  0.269754777969E+00  0.285231206794E+00  0.301434498796E+00  0.318377328473E+00  0.336069370264E+00
  0.354516764237E+00  0.373721534403E+00  0.393680960413E+00  0.414386904778E+00  0.435825099380E+00
  0.457974397092E+00  0.480805996756E+00  0.504282652626E+00  0.528357882714E+00  0.552975194281E+00
  0.578067348967E+00  0.603555694709E+00  0.629349596615E+00  0.655346004113E+00  0.681429196848E+00
  0.707470756597E+00  0.733329816494E+00  0.758853641607E+00  0.783878595579E+00  0.808231545861E+00
  0.831731753868E+00  0.854193285003E+00  0.875427955393E+00  0.895248805905E+00  0.913474057856E+00
  0.929931457255E+00  0.944462854245E+00  0.956928790724E+00  0.967212782341E+00  0.975224882558E+00
  0.980904010175E+00  0.984218413823E+00  0.985163547768E+00  0.983756557356E+00  0.980026539650E+00
  0.973999781008E+00  0.965679310448E+00  0.955018382704E+00  0.941883617397E+00  0.926122263691E+00
  0.907824587069E+00  0.887171866708E+00  0.864357096377E+00  0.839582924494E+00  0.813059604795E+00
  0.785002985653E+00  0.755632519674E+00  0.725169296251E+00  0.693834072638E+00  0.661845285929E+00
  0.629417040157E+00  0.596757067527E+00  0.564064695608E+00  0.531528872729E+00  0.499326327761E+00
  0.467619957273E+00  0.436557529085E+00  0.406270778961E+00  0.376874947833E+00  0.348468770812E+00
  0.321134891066E+00  0.294940637099E+00  0.269939075143E+00  0.246170231510E+00  0.223662374253E+00
  0.202433249681E+00  0.182491187081E+00  0.163836013088E+00  0.146459752289E+00  0.130347127811E+00
  0.115475908275E+00  0.101817169663E+00  0.893355485611E-01  0.779895566081E-01  0.677320080941E-01
  0.585105884989E-01  0.502685670032E-01  0.429456348701E-01  0.364788365999E-01  0.308035525670E-01
  0.258544897833E-01  0.215666401275E-01  0.178761712390E-01  0.147212228577E-01  0.120425895306E-01
  0.978427848541E-02  0.789393855483E-02  0.632316204986E-02  0.502766629405E-02  0.396736516392E-02
  0.310634349502E-02  0.241274873364E-02
 ae wavefunction
  0.330145000027E-05  0.349557416464E-05  0.370046999017E-05  0.391677447260E-05  0.414516073164E-05
  0.438634018754E-05  0.464106486507E-05  0.491012983416E-05  0.519437579438E-05  0.549469181367E-05
  0.581201822973E-05  0.614734972467E-05  0.650173858482E-05  0.687629815543E-05  0.727220650349E-05
  0.769071030181E-05  0.813312894892E-05  0.860085893630E-05  0.909537848274E-05  0.961825244934E-05
  0.101711375549E-04  0.107557879086E-04  0.113740608803E-04  0.120279233299E-04  0.127194582196E-04
  0.134508716289E-04  0.142245002022E-04  0.150428190509E-04  0.159084501486E-04  0.168241712302E-04
  0.177929252527E-04  0.188178304297E-04  0.199021908896E-04  0.210495079891E-04  0.222634923290E-04
  0.235480765080E-04  0.249074286708E-04  0.263459668907E-04  0.278683744455E-04  0.294796160387E-04
  0.311849550272E-04  0.329899717175E-04  0.349005827965E-04  0.369230619701E-04  0.390640618812E-04
  0.413306373911E-04  0.437302703055E-04  0.462708956375E-04  0.489609295022E-04  0.518092987441E-04
  0.548254724051E-04  0.580194951474E-04  0.614020227520E-04  0.649843598204E-04  0.687784998172E-04
  0.727971675953E-04  0.770538645606E-04  0.815629166300E-04  0.863395251661E-04  0.913998210585E-04
  0.967609221508E-04  0.102440994215E-03  0.108459315693E-03  0.114836346417E-03  0.121593800578E-03
  0.128754724171E-03  0.136343577203E-03  0.144386320936E-03  0.152910510481E-03  0.161945393054E-03
  0.171522012221E-03  0.181673318510E-03  0.192434286735E-03  0.203842040456E-03  0.215935983969E-03
  0.228757942276E-03  0.242352309507E-03  0.256766206248E-03  0.272049646336E-03  0.288255713618E-03
  0.305440749268E-03  0.323664550247E-03  0.342990579541E-03  0.363486188826E-03  0.385222854263E-03
  0.408276426138E-03  0.432727393107E-03  0.458661161852E-03  0.486168352967E-03  0.515345113956E-03
  0.546293450236E-03  0.579121575121E-03  0.613944279744E-03  0.650883323976E-03  0.690067849410E-03
  0.731634815497E-03  0.775729460033E-03  0.822505785178E-03  0.872127070250E-03  0.924766412563E-03
  0.980607297686E-03  0.103984420042E-02  0.110268321795E-02  0.116934273660E-02  0.124005413364E-02
  0.131506251571E-02  0.139462749528E-02  0.147902400690E-02  0.156854316455E-02  0.166349316190E-02
  0.176420021700E-02  0.187100956289E-02  0.198428648585E-02  0.210441741274E-02  0.223181104899E-02
  0.236689956865E-02  0.251013985801E-02  0.266201481394E-02  0.282303469832E-02  0.299373854958E-02
  0.317469565233E-02  0.336650706573E-02  0.356980721144E-02  0.378526552115E-02  0.401358814402E-02
  0.425551971364E-02  0.451184517397E-02  0.478339166320E-02  0.507103045415E-02  0.537567894916E-02
  0.569830272702E-02  0.603991763861E-02  0.640159194763E-02  0.678444851137E-02  0.718966699633E-02
  0.761848612190E-02  0.807220592467E-02  0.855219003454E-02  0.905986795261E-02  0.959673731940E-02
  0.101643661605E-01  0.107643950948E-01  0.113985394891E-01  0.120685915409E-01  0.127764222676E-01
  0.135239833812E-01  0.143133090219E-01  0.151465173226E-01  0.160258117746E-01  0.169534823593E-01
  0.179319064103E-01  0.189635491645E-01  0.200509639585E-01  0.211967920221E-01  0.224037618180E-01
  0.236746878699E-01  0.250124690202E-01  0.264200860514E-01  0.279005986006E-01  0.294571412945E-01
  0.310929190228E-01  0.328112012671E-01  0.346153153944E-01  0.365086388207E-01  0.384945899444E-01
  0.405766177453E-01  0.427581899378E-01  0.450427795666E-01  0.474338499242E-01  0.499348376701E-01
  0.525491340253E-01  0.552800639168E-01  0.581308629409E-01  0.611046520180E-01  0.642044096106E-01
  0.674329413773E-01  0.707928471412E-01  0.742864850569E-01  0.779159328663E-01  0.816829461452E-01
  0.855889134543E-01  0.896348083259E-01  0.938211380335E-01  0.981478891155E-01  0.102614469652E+00
  0.107219648322E+00  0.111961490302E+00  0.116837290112E+00  0.121843501558E+00  0.126975664971E+00
  0.132228331999E+00  0.137594988276E+00  0.143067974364E+00  0.148638405441E+00  0.154296090284E+00
  0.160029450191E+00  0.165825438575E+00  0.171669462027E+00  0.177545303733E+00  0.183435050159E+00
  0.189319021951E+00  0.195175709996E+00  0.200981717541E+00  0.206711709312E+00  0.212338368591E+00
  0.217832363399E+00  0.223162323263E+00  0.228294828527E+00  0.233194414707E+00  0.237823594967E+00
  0.242142904155E+00  0.246110967972E+00  0.249684600702E+00  0.252818934457E+00  0.255467582226E+00
  0.257582836180E+00  0.259115901975E+00  0.260017169306E+00  0.260236518862E+00  0.259723665873E+00
  0.258428540557E+00  0.256301705636E+00  0.253294810826E+00  0.249361083652E+00  0.244455855434E+00
  0.238537120659E+00  0.231566127337E+00  0.223507995277E+00  0.214332358473E+00  0.204014027035E+00
  0.192533663166E+00  0.179878464831E+00  0.166042849712E+00  0.151029131099E+00  0.134848176327E+00
  0.117520037412E+00  0.990745426625E-01  0.795518372655E-01  0.590028602753E-01  0.374897450217E-01
  0.150861298007E-01 -0.812263430447E-02 -0.320393914940E-01 -0.565552179945E-01 -0.815495997724E-01
 -0.106890762224E+00 -0.132436159628E+00 -0.158033125268E+00 -0.183519671288E+00 -0.208725411538E+00
 -0.233472567315E+00 -0.257577017057E+00 -0.280849379795E+00 -0.303096180759E+00 -0.324121213305E+00
 -0.343727229174E+00 -0.361718005411E+00 -0.377900680407E+00 -0.392088151996E+00 -0.404101371703E+00
 -0.413771483494E+00 -0.420941830620E+00 -0.425469859658E+00 -0.427228921934E+00 -0.426109943376E+00
 -0.422022919911E+00 -0.414898196747E+00 -0.404687500544E+00 -0.391364708190E+00 -0.374926348973E+00
 -0.355391847112E+00 -0.332803518163E+00 -0.307226336595E+00 -0.278747493299E+00 -0.247475761694E+00
 -0.213540689872E+00 -0.177091633669E+00 -0.138296643138E+00 -0.973412115059E-01 -0.544268938789E-01
 -0.976980093576E-02  0.364010265322E-01  0.838453548500E-01  0.132313595405E+00  0.181548727939E+00
  0.231288290002E+00  0.281266412154E+00  0.331215881531E+00  0.380870225062E+00  0.429965813693E+00
  0.478243993969E+00  0.525453237171E+00  0.571351242088E+00  0.615706827070E+00  0.658301328817E+00
  0.698929178424E+00  0.737397479103E+00  0.773524822940E+00  0.807140083824E+00  0.838082131490E+00
  0.866201052308E+00  0.891360730791E+00  0.913442061113E+00  0.932345982609E+00  0.947995843460E+00
  0.960338970080E+00  0.969347539746E+00  0.975018899665E+00  0.977375444653E+00  0.976464121994E+00
  0.972355599411E+00  0.965143129659E+00  0.954941143061E+00  0.941883617397E+00  0.926122263691E+00
  0.907824587069E+00  0.887171866708E+00  0.864357096377E+00  0.839582924494E+00  0.813059604795E+00
  0.785002985653E+00  0.755632519674E+00  0.725169296251E+00  0.693834072638E+00  0.661845285929E+00
  0.629417040157E+00  0.596757067527E+00  0.564064695608E+00  0.531528872729E+00  0.499326327761E+00
  0.467619957273E+00  0.436557529085E+00  0.406270778961E+00  0.376874947833E+00  0.348468770812E+00
  0.321134891066E+00  0.294940637099E+00  0.269939075143E+00  0.246170231510E+00  0.223662374253E+00
  0.202433249681E+00  0.182491187081E+00  0.163836013088E+00  0.146459752289E+00  0.130347127811E+00
  0.115475908275E+00  0.101817169663E+00  0.893355485611E-01  0.779895566081E-01  0.677320080941E-01
  0.585105884989E-01  0.502685670032E-01  0.429456348701E-01  0.364788365999E-01  0.308035525670E-01
  0.258544897833E-01  0.215666401275E-01  0.178761712390E-01  0.147212228577E-01  0.120425895306E-01
  0.978427848541E-02  0.789393855483E-02  0.632316204986E-02  0.502766629405E-02  0.396736516392E-02
  0.310634349502E-02  0.241274873364E-02
 pseudo wavefunction
  0.144509143645E-07  0.154060099549E-07  0.164242301034E-07  0.175097468633E-07  0.186670080290E-07
  0.199007553603E-07  0.212160440112E-07  0.226182632431E-07  0.241131585063E-07  0.257068549820E-07
  0.274058826791E-07  0.292172031903E-07  0.311482382171E-07  0.332068999785E-07  0.354016236312E-07
  0.377414018318E-07  0.402358215827E-07  0.428951035146E-07  0.457301437639E-07  0.487525586188E-07
  0.519747321157E-07  0.554098667818E-07  0.590720377305E-07  0.629762503334E-07  0.671385017030E-07
  0.715758462388E-07  0.763064655068E-07  0.813497427357E-07  0.867263422383E-07  0.924582940809E-07
  0.985690843496E-07  0.105083751382E-06  0.112028988359E-06  0.119433252677E-06  0.127326882551E-06
  0.135742221318E-06  0.144713749967E-06  0.154278228414E-06  0.164474846126E-06  0.175345382697E-06
  0.186934379031E-06  0.199289319847E-06  0.212460828242E-06  0.226502873113E-06  0.241472990288E-06
  0.257432518276E-06  0.274446849592E-06  0.292585698694E-06  0.311923387638E-06  0.332539150594E-06
  0.354517458508E-06  0.377948365208E-06  0.402927876392E-06  0.429558342995E-06  0.457948880570E-06
  0.488215816366E-06  0.520483165975E-06  0.554883141465E-06  0.591556693106E-06  0.630654086898E-06
  0.672335520267E-06  0.716771778456E-06  0.764144934295E-06  0.814649094225E-06  0.868491193625E-06
  0.925891844699E-06  0.987086240417E-06  0.105232511818E-05  0.112187578718E-05  0.119602322367E-05
  0.127507123865E-05  0.135934372260E-05  0.144918597270E-05  0.154496610752E-05  0.164707657543E-05
  0.175593576252E-05  0.187198970694E-05  0.199571392644E-05  0.212761536673E-05  0.226823447865E-05
  0.241814743252E-05  0.257796847894E-05  0.274835246558E-05  0.292999752031E-05  0.312364791162E-05
  0.333009709817E-05  0.355019097980E-05  0.378483136347E-05  0.403497965823E-05  0.430166081438E-05
  0.458596752300E-05  0.488906469300E-05  0.521219422410E-05  0.555668009517E-05  0.592393378898E-05
  0.631546007531E-05  0.673286317642E-05  0.717785333986E-05  0.765225384577E-05  0.815800847717E-05
  0.869718948405E-05  0.927200607372E-05  0.988481346230E-05  0.105381225244E-04  0.112346100803E-04
  0.119771298637E-04  0.127687242130E-04  0.136126365365E-04  0.145123246007E-04  0.154714746969E-04
  0.164940167435E-04  0.175841403875E-04  0.187463121687E-04  0.199852938190E-04  0.213061617706E-04
  0.227143279533E-04  0.242155619666E-04  0.258160147156E-04  0.275222436108E-04  0.293412394307E-04
  0.312804549611E-04  0.333478355263E-04  0.355518515370E-04  0.379015331895E-04  0.404065074573E-04
  0.430770375262E-04  0.459240648362E-04  0.489592538990E-04  0.521950400783E-04  0.556446805255E-04
  0.593223084805E-04  0.632429911598E-04  0.674227914687E-04  0.718788337891E-04  0.766293741139E-04
  0.816938748126E-04  0.870930843363E-04  0.928491221854E-04  0.989855694895E-04  0.105527565569E-03
  0.112501910873E-03  0.119937176713E-03  0.127863822245E-03  0.136314319170E-03  0.145323284673E-03
  0.154927623132E-03  0.165166677186E-03  0.176082388767E-03  0.187719470767E-03  0.200125590025E-03
  0.213351562398E-03  0.227451560689E-03  0.242483336305E-03  0.258508455524E-03  0.275592551349E-03
  0.293805591967E-03  0.313222166915E-03  0.333921792096E-03  0.355989234911E-03  0.379514860807E-03
  0.404595002665E-03  0.431332354508E-03  0.459836391148E-03  0.490223815452E-03  0.522619035055E-03
  0.557154670435E-03  0.593972096421E-03  0.633222019300E-03  0.675065091879E-03  0.719672568951E-03
  0.767227005836E-03  0.817923002786E-03  0.871967998253E-03  0.929583114202E-03  0.991004056857E-03
  0.105648207649E-02  0.112628499007E-02  0.120069827087E-02  0.128002620936E-02  0.136459315002E-02
  0.145474480890E-02  0.155084967727E-02  0.165330051677E-02  0.176251595203E-02  0.187894216698E-02
  0.200305471148E-02  0.213536042539E-02  0.227639948741E-02  0.242674759679E-02  0.258701829633E-02
  0.275786544539E-02  0.293998585265E-02  0.313412207851E-02  0.334106541768E-02  0.356165907343E-02
  0.379680153512E-02  0.404745017182E-02  0.431462505515E-02  0.459941302548E-02  0.490297201623E-02
  0.522653565194E-02  0.557141813653E-02  0.593901944910E-02  0.633083086544E-02  0.674844082448E-02
  0.719354115957E-02  0.766793371586E-02  0.817353737558E-02  0.871239551437E-02  0.928668391245E-02
  0.989871914577E-02  0.105509674829E-01  0.112460543148E-01  0.119867741443E-01  0.127761011655E-01
  0.136172004605E-01  0.145134398449E-01  0.154684023918E-01  0.164858996654E-01  0.175699856952E-01
  0.187249717217E-01  0.199554417445E-01  0.212662689027E-01  0.226626327157E-01  0.241500372137E-01
  0.257343299810E-01  0.274217221364E-01  0.292188092688E-01  0.311325933436E-01  0.331705055892E-01
  0.353404303665E-01  0.376507300176E-01  0.401102706785E-01  0.427284490331E-01  0.455152199691E-01
  0.484811250836E-01  0.516373219681E-01  0.549956141833E-01  0.585684818059E-01  0.623691124098E-01
  0.664114323053E-01  0.707101378287E-01  0.752807264320E-01  0.801395272758E-01  0.853037309765E-01
  0.907914180964E-01  0.966215859023E-01  0.102814172836E+00  0.109390080063E+00  0.116371189359E+00
  0.123780376502E+00  0.131641519203E+00  0.139979498503E+00  0.148820192377E+00  0.158190460194E+00
  0.168118116428E+00  0.178631891915E+00  0.189761380674E+00  0.201536970143E+00  0.213989752436E+00
  0.227151413975E+00  0.241054100625E+00  0.255730255169E+00  0.271212423728E+00  0.287533027457E+00
  0.304724095595E+00  0.322816955744E+00  0.341841877016E+00  0.361827661570E+00  0.382801179958E+00
  0.404786845682E+00  0.427806024504E+00  0.451876374255E+00  0.477011111343E+00  0.503218200764E+00
  0.530499467337E+00  0.558849627072E+00  0.588255239142E+00  0.618693580919E+00  0.650131451025E+00
  0.682523908335E+00  0.715812958523E+00  0.749926203974E+00  0.784775477906E+00  0.820255489144E+00
  0.856242510378E+00  0.892593149672E+00  0.929143252424E+00  0.965706988704E+00  0.100207618852E+01
  0.103801999478E+01  0.107328490970E+01  0.110759531471E+01  0.114065454510E+01  0.117214659790E+01
  0.120173854317E+01  0.122908369329E+01  0.125382556010E+01  0.127560259424E+01  0.129405365231E+01
  0.130882407449E+01  0.131957217641E+01  0.132597586519E+01  0.132773898109E+01  0.132459684834E+01
  0.131632039766E+01  0.130271811057E+01  0.128363494793E+01  0.125894738549E+01  0.122855371620E+01
  0.119235892974E+01  0.115025378572E+01  0.110208820450E+01  0.104763985231E+01  0.986675957338E+00
  0.919269537359E+00  0.845600439068E+00  0.765870789805E+00  0.000000000000E+00  0.000000000000E+00
  0.000000000000E+00  0.000000000000E+00  0.000000000000E+00  0.000000000000E+00  0.000000000000E+00
  0.000000000000E+00  0.000000000000E+00  0.000000000000E+00  0.000000000000E+00  0.000000000000E+00
  0.000000000000E+00  0.000000000000E+00  0.000000000000E+00  0.000000000000E+00  0.000000000000E+00
  0.000000000000E+00  0.000000000000E+00  0.000000000000E+00  0.000000000000E+00  0.000000000000E+00
  0.000000000000E+00  0.000000000000E+00  0.000000000000E+00  0.000000000000E+00  0.000000000000E+00
  0.000000000000E+00  0.000000000000E+00  0.000000000000E+00  0.000000000000E+00  0.000000000000E+00
  0.000000000000E+00  0.000000000000E+00  0.000000000000E+00  0.000000000000E+00  0.000000000000E+00
  0.000000000000E+00  0.000000000000E+00  0.000000000000E+00  0.000000000000E+00  0.000000000000E+00
  0.000000000000E+00  0.000000000000E+00  0.000000000000E+00  0.000000000000E+00  0.000000000000E+00
  0.000000000000E+00  0.000000000000E+00
 ae wavefunction
  0.481319222438E-05  0.509620640294E-05  0.539492461552E-05  0.571027554017E-05  0.604324052020E-05
  0.639485673737E-05  0.676622057093E-05  0.715849115577E-05  0.757289415037E-05  0.801072572966E-05
  0.847335681486E-05  0.896223755612E-05  0.947890208495E-05  0.100249735508E-04  0.106021694613E-04
  0.112123073447E-04  0.118573107561E-04  0.125392156448E-04  0.132601771108E-04  0.140224765700E-04
  0.148285293580E-04  0.156808927960E-04  0.165822747498E-04  0.175355427105E-04  0.185437334353E-04
  0.196100631748E-04  0.207379385304E-04  0.219309679750E-04  0.231929740925E-04  0.245280065516E-04
  0.259403558991E-04  0.274345681886E-04  0.290154605200E-04  0.306881375327E-04  0.324580089238E-04
  0.343308080422E-04  0.363126116399E-04  0.384098608406E-04  0.406293834106E-04  0.429784174081E-04
  0.454646362984E-04  0.480961756293E-04  0.508816613586E-04  0.538302399431E-04  0.569516102936E-04
  0.602560577160E-04  0.637544899603E-04  0.674584755089E-04  0.713802842445E-04  0.755329306438E-04
  0.799302196551E-04  0.845867954253E-04  0.895181930537E-04  0.947408935566E-04  0.100272382247E-03
  0.106131210730E-03  0.112337062750E-03  0.118910824110E-03  0.125874656928E-03  0.133252078479E-03
  0.141068044925E-03  0.149349040205E-03  0.158123170420E-03  0.167420264028E-03  0.177271978217E-03
  0.187711911818E-03  0.198775725149E-03  0.210501267218E-03  0.222928710705E-03  0.236100695216E-03
  0.250062479261E-03  0.264862101511E-03  0.280550551849E-03  0.297181952822E-03  0.314813752062E-03
  0.333506926358E-03  0.353326198029E-03  0.374340264305E-03  0.396622040486E-03  0.420248917646E-03
  0.445303035716E-03  0.471871572827E-03  0.500047051807E-03  0.529927664812E-03  0.561617617079E-03
  0.595227490888E-03  0.630874630798E-03  0.668683551353E-03  0.708786368461E-03  0.751323255702E-03
  0.796442926905E-03  0.844303146381E-03  0.895071268230E-03  0.948924806265E-03  0.100605203609E-02
  0.106665263093E-02  0.113093833301E-02  0.119913366206E-02  0.127147666295E-02  0.134821969416E-02
  0.142963025915E-02  0.151599188252E-02  0.160760503306E-02  0.170478809581E-02  0.180787839523E-02
  0.191723327167E-02  0.203323121343E-02  0.215627304667E-02  0.228678318541E-02  0.242521094393E-02
  0.257203191397E-02  0.272774940902E-02  0.289289597784E-02  0.306803498970E-02  0.325376229337E-02
  0.345070795210E-02  0.365953805656E-02  0.388095661766E-02  0.411570754110E-02  0.436457668515E-02
  0.462839400307E-02  0.490803577132E-02  0.520442690440E-02  0.551854335667E-02  0.585141461149E-02
  0.620412625706E-02  0.657782264823E-02  0.697370965278E-02  0.739305748005E-02  0.783720358901E-02
  0.830755567208E-02  0.880559471011E-02  0.933287809279E-02  0.989104279762E-02  0.104818086195E-01
  0.111069814412E-01  0.117684565337E-01  0.124682218741E-01  0.132083614653E-01  0.139910586424E-01
  0.148185993449E-01  0.156933753354E-01  0.166178873397E-01  0.175947480808E-01  0.186266851784E-01
  0.197165438796E-01  0.208672895843E-01  0.220820101239E-01  0.233639177492E-01  0.247163507784E-01
  0.261427748498E-01  0.276467837221E-01  0.292320995563E-01  0.309025726106E-01  0.326621802724E-01
  0.345150253442E-01  0.364653334976E-01  0.385174497980E-01  0.406758341992E-01  0.429450558996E-01
  0.453297864418E-01  0.478347914345E-01  0.504649207629E-01  0.532250971518E-01  0.561203029322E-01
  0.591555648621E-01  0.623359368382E-01  0.656664803332E-01  0.691522423866E-01  0.727982309702E-01
  0.766093875464E-01  0.805905566332E-01  0.847464521888E-01  0.890816206265E-01  0.936004002731E-01
  0.983068770868E-01  0.103204836456E+00  0.108297710909E+00  0.113588523575E+00  0.119079827255E+00
  0.124773638974E+00  0.130671369913E+00  0.136773750647E+00  0.143080751648E+00  0.149591499040E+00
  0.156304185663E+00  0.163215977521E+00  0.170322915778E+00  0.177619814505E+00  0.185100154487E+00
  0.192755973456E+00  0.200577753221E+00  0.208554304274E+00  0.216672648565E+00  0.224917901239E+00
  0.233273152294E+00  0.241719349201E+00  0.250235181674E+00  0.258796969875E+00  0.267378557379E+00
  0.275951210306E+00  0.284483523963E+00  0.292941338359E+00  0.301287663928E+00  0.309482618877E+00
  0.317483379852E+00  0.325244148066E+00  0.332716133758E+00  0.339847562646E+00  0.346583708866E+00
  0.352866959409E+00  0.358636915302E+00  0.363830534514E+00  0.368382320936E+00  0.372224562757E+00
  0.375287622400E+00  0.377500279083E+00  0.378790124439E+00  0.379084011379E+00  0.378308556546E+00
  0.376390696795E+00  0.373258300010E+00  0.368840830080E+00  0.363070065168E+00  0.355880867588E+00
  0.347212002689E+00  0.337007003301E+00  0.325215075248E+00  0.311792038427E+00  0.296701296752E+00
  0.279914829003E+00  0.261414191257E+00  0.241191520128E+00  0.219250524587E+00  0.195607452654E+00
  0.170292017821E+00  0.143348268788E+00  0.114835384928E+00  0.848283790630E-01  0.534186885296E-01
  0.207146352269E-01 -0.131582646544E-01 -0.480571603825E-01 -0.838219147351E-01 -0.120275358484E+00
 -0.157223767573E+00 -0.194457574557E+00 -0.231752315819E+00 -0.268869798799E+00 -0.305559450435E+00
 -0.341559788618E+00 -0.376599960312E+00 -0.410401332165E+00 -0.442679205058E+00 -0.473144819868E+00
 -0.501507847341E+00 -0.527479432287E+00 -0.550775634685E+00 -0.571120965494E+00 -0.588251775584E+00
 -0.601919423174E+00 -0.611893254701E+00 -0.617963441865E+00 -0.619943675196E+00 -0.617673672013E+00
 -0.611021436372E+00 -0.599885210548E+00 -0.584195073134E+00 -0.563914160408E+00 -0.539039506569E+00
 -0.509602513220E+00 -0.475669067945E+00 -0.437339337131E+00 -0.394747260225E+00 -0.348059772265E+00
 -0.297475779532E+00 -0.243224909260E+00 -0.185566050646E+00 -0.124785699268E+00 -0.611961142364E-01
  0.486670556118E-02  0.730452189522E-01  0.142962704213E+00  0.214225770209E+00  0.286426995776E+00
  0.359147670760E+00  0.431960610538E+00  0.504433020683E+00  0.576129401379E+00  0.646614495897E+00
  0.715456294082E+00  0.782229076667E+00  0.846516405373E+00  0.907913816526E+00  0.966030807352E+00
  0.102049164637E+01  0.107093477978E+01  0.111701121859E+01  0.115838301042E+01  0.119472316984E+01
  0.122571787872E+01  0.125107069092E+01  0.127050763178E+01  0.128378202507E+01  0.129067833164E+01
  0.129101484432E+01  0.128464539002E+01  0.127146024913E+01  0.125138645312E+01  0.122438755793E+01
  0.119046294492E+01  0.114964669832E+01  0.110200610598E+01  0.104763985231E+01  0.986675957338E+00
  0.919269537359E+00  0.845600439068E+00  0.765870789805E+00  0.000000000000E+00  0.000000000000E+00
  0.000000000000E+00  0.000000000000E+00  0.000000000000E+00  0.000000000000E+00  0.000000000000E+00
  0.000000000000E+00  0.000000000000E+00  0.000000000000E+00  0.000000000000E+00  0.000000000000E+00
  0.000000000000E+00  0.000000000000E+00  0.000000000000E+00  0.000000000000E+00  0.000000000000E+00
  0.000000000000E+00  0.000000000000E+00  0.000000000000E+00  0.000000000000E+00  0.000000000000E+00
  0.000000000000E+00  0.000000000000E+00  0.000000000000E+00  0.000000000000E+00  0.000000000000E+00
  0.000000000000E+00  0.000000000000E+00  0.000000000000E+00  0.000000000000E+00  0.000000000000E+00
  0.000000000000E+00  0.000000000000E+00  0.000000000000E+00  0.000000000000E+00  0.000000000000E+00
  0.000000000000E+00  0.000000000000E+00  0.000000000000E+00  0.000000000000E+00  0.000000000000E+00
  0.000000000000E+00  0.000000000000E+00  0.000000000000E+00  0.000000000000E+00  0.000000000000E+00
  0.000000000000E+00  0.000000000000E+00
 pseudo wavefunction
  0.406396743188E-12  0.447344898534E-12  0.492418951668E-12  0.542034624183E-12  0.596649525395E-12
  0.656767372904E-12  0.722942638421E-12  0.795785661711E-12  0.875968279797E-12  0.964230023373E-12
  0.106138493755E-11  0.116832908987E-11  0.128604883478E-11  0.141562991089E-11  0.155826745482E-11
  0.171527702401E-11  0.188810673026E-11  0.207835059574E-11  0.228776325479E-11  0.251827613708E-11
  0.277201528130E-11  0.305132094379E-11  0.335876918295E-11  0.369719561839E-11  0.406972158406E-11
  0.447978291660E-11  0.493116164434E-11  0.542802086917E-11  0.597494316324E-11  0.657697283435E-11
  0.723966244998E-11  0.796912404907E-11  0.877208551385E-11  0.965595262160E-11  0.106288773487E-10
  0.116998330570E-10  0.128786972558E-10  0.141763427028E-10  0.156047376846E-10  0.171770564008E-10
  0.189078004711E-10  0.208129326843E-10  0.229100242250E-10  0.252184167334E-10  0.277594006948E-10
  0.305564118037E-10  0.336352471128E-10  0.370243029609E-10  0.407548368750E-10  0.448612558602E-10
  0.493814337385E-10  0.543570604618E-10  0.598340266212E-10  0.658628466994E-10  0.724991249695E-10
  0.798040683371E-10  0.878450508559E-10  0.966962351239E-10  0.106439256289E-09  0.117163974978E-09
  0.128969306085E-09  0.141964131071E-09  0.156268302185E-09  0.172013747870E-09  0.189345689547E-09
  0.208423981001E-09  0.229424582726E-09  0.252541184814E-09  0.277986993375E-09  0.305996696949E-09
  0.336828631053E-09  0.370767160821E-09  0.408125303725E-09  0.449247616547E-09  0.494513373250E-09
  0.544340063035E-09  0.599187240870E-09  0.659560765986E-09  0.726017467438E-09  0.799170279764E-09
  0.879693896107E-09  0.968330990933E-09  0.106589906975E-08  0.117329800896E-08  0.129151835552E-08
  0.142165046267E-08  0.156489454638E-08  0.172257175492E-08  0.189613635386E-08  0.208718913872E-08
  0.229749219917E-08  0.252898517078E-08  0.278380312423E-08  0.306429625707E-08  0.337305156959E-08
  0.371291672458E-08  0.408702631132E-08  0.449883075574E-08  0.495212814356E-08  0.545109924983E-08
  0.600034609797E-08  0.660493440387E-08  0.727044029665E-08  0.800300174672E-08  0.880937517568E-08
  0.969699777003E-08  0.106740560734E-07  0.117495614898E-07  0.129334333945E-07  0.142365906187E-07
  0.156710521519E-07  0.172500479903E-07  0.189881411546E-07  0.209013620006E-07  0.230073560633E-07
  0.253255467962E-07  0.278773147084E-07  0.306861945488E-07  0.337780923593E-07  0.371815243954E-07
  0.409278801197E-07  0.450517116923E-07  0.495910526280E-07  0.545877685593E-07  0.600879433388E-07
  0.661423040420E-07  0.728066887893E-07  0.801425617009E-07  0.882175797334E-07  0.971062166237E-07
  0.106890449695E-06  0.117660515855E-06  0.129515743759E-06  0.142565469813E-06  0.156930046451E-06
  0.172741951999E-06  0.190147012344E-06  0.209305745678E-06  0.230394842710E-06  0.253608796000E-06
  0.279161693417E-06  0.307289192277E-06  0.338250692336E-06  0.372331727680E-06  0.409846599554E-06
  0.451141274396E-06  0.496596573784E-06  0.546631685692E-06  0.601708029416E-06  0.662333509778E-06
  0.729067199810E-06  0.802524495064E-06  0.883382787024E-06  0.972387707897E-06  0.107036000429E-05
  0.117820310311E-05  0.129691143934E-05  0.142757962236E-05  0.157141252533E-05  0.172973639037E-05
  0.190401105186E-05  0.209584339036E-05  0.230700214103E-05  0.253943419265E-05  0.279528252743E-05
  0.307690596644E-05  0.338690090247E-05  0.372812521998E-05  0.410372462223E-05  0.451716160752E-05
  0.497224736092E-05  0.547317685435E-05  0.602456747771E-05  0.663150155558E-05  0.729957313994E-05
  0.803493950850E-05  0.884437784087E-05  0.973534759268E-05  0.107160591394E-04  0.117955493189E-04
  0.129837645653E-04  0.142916523946E-04  0.157312620797E-04  0.173158554370E-04  0.190600287349E-04
  0.209798468411E-04  0.230929908321E-04  0.254189204114E-04  0.279790526203E-04  0.307969584666E-04
  0.338985792644E-04  0.373124646509E-04  0.410700344461E-04  0.452058667315E-04  0.497580147612E-04
  0.547683555782E-04  0.602829734902E-04  0.663525818710E-04  0.730329870962E-04  0.803855987934E-04
  0.884779910012E-04  0.973845192775E-04  0.107186999294E-03  0.117975452987E-03  0.129848928946E-03
  0.142916404325E-03  0.157297776341E-03  0.173124952111E-03  0.190543046515E-03  0.209711698625E-03
  0.230806518302E-03  0.254020675635E-03  0.279566647129E-03  0.307678133833E-03  0.338612168053E-03
  0.372651426850E-03  0.410106772198E-03  0.451320039561E-03  0.496667098598E-03  0.546561211914E-03
  0.601456720122E-03  0.661853083992E-03  0.728299317271E-03  0.801398846662E-03  0.881814838701E-03
  0.970276036679E-03  0.106758315444E-02  0.117461587788E-02  0.129234052911E-02  0.142181845291E-02
  0.156421518956E-02  0.172081050370E-02  0.189300934352E-02  0.208235381097E-02  0.229053622878E-02
  0.251941339665E-02  0.277102213507E-02  0.304759622159E-02  0.335158483087E-02  0.368567259641E-02
  0.405280141812E-02  0.445619414617E-02  0.489938027731E-02  0.538622380505E-02  0.592095336982E-02
  0.650819485823E-02  0.715300660327E-02  0.786091733700E-02  0.863796704625E-02  0.949075087685E-02
  0.104264662248E-01  0.114529631414E-01  0.125787981619E-01  0.138132916494E-01  0.151665887122E-01
  0.166497237225E-01  0.182746884186E-01  0.200545035164E-01  0.220032936955E-01  0.241363657434E-01
  0.264702895513E-01  0.290229815477E-01  0.318137900298E-01  0.348635817135E-01  0.381948286570E-01
  0.418316945355E-01  0.458001190406E-01  0.501278989590E-01  0.548447642490E-01  0.599824471822E-01
  0.655747423568E-01  0.716575551346E-01  0.782689357977E-01  0.854490965005E-01  0.932404079072E-01
  0.101687372287E+00  0.110836569826E+00  0.120736575017E+00  0.131437840292E+00  0.142992544583E+00
  0.155454405303E+00  0.168878453444E+00  0.183320773102E+00  0.198838208891E+00  0.215488047512E+00
  0.233327683199E+00  0.252414281043E+00  0.272804457286E+00  0.294554001626E+00  0.317717673340E+00
  0.342349110438E+00  0.368500898950E+00  0.396224857295E+00  0.425572597938E+00  0.456596434283E+00
  0.489350703722E+00  0.523893576374E+00  0.560289411160E+00  0.598611703960E+00  0.638946643555E+00
  0.681397246384E+00  0.726087976985E+00  0.773169673521E+00  0.822824483474E+00  0.875270371026E+00
  0.930764584389E+00  0.989605271035E+00  0.105213020911E+01  0.111871139831E+01  0.118974404614E+01
  0.126562832977E+01  0.134674225547E+01  0.143340403696E+01  0.152582274231E+01  0.162418080449E+01
  0.172912531017E+01  0.184152850073E+01  0.196238708839E+01  0.000000000000E+00  0.000000000000E+00
  0.000000000000E+00  0.000000000000E+00  0.000000000000E+00  0.000000000000E+00  0.000000000000E+00
  0.000000000000E+00  0.000000000000E+00  0.000000000000E+00  0.000000000000E+00  0.000000000000E+00
  0.000000000000E+00  0.000000000000E+00  0.000000000000E+00  0.000000000000E+00  0.000000000000E+00
  0.000000000000E+00  0.000000000000E+00  0.000000000000E+00  0.000000000000E+00  0.000000000000E+00
  0.000000000000E+00  0.000000000000E+00  0.000000000000E+00  0.000000000000E+00  0.000000000000E+00
  0.000000000000E+00  0.000000000000E+00  0.000000000000E+00  0.000000000000E+00  0.000000000000E+00
  0.000000000000E+00  0.000000000000E+00  0.000000000000E+00  0.000000000000E+00  0.000000000000E+00
  0.000000000000E+00  0.000000000000E+00  0.000000000000E+00  0.000000000000E+00  0.000000000000E+00
  0.000000000000E+00  0.000000000000E+00  0.000000000000E+00  0.000000000000E+00  0.000000000000E+00
  0.000000000000E+00  0.000000000000E+00
 ae wavefunction
 -0.618293099374E-09 -0.676089623828E-09 -0.738809130085E-09 -0.806910551625E-09 -0.880892693544E-09
 -0.961297966854E-09 -0.104871645491E-08 -0.114379034401E-08 -0.124721875198E-08 -0.135976299306E-08
 -0.148225231944E-08 -0.161559018485E-08 -0.176076107953E-08 -0.191883798965E-08 -0.209099054024E-08
 -0.227849388602E-08 -0.248273842102E-08 -0.270524038180E-08 -0.294765343134E-08 -0.321178131351E-08
 -0.349959168072E-08 -0.381323120404E-08 -0.415504208707E-08 -0.452758011547E-08 -0.493363439006E-08
 -0.537624889781E-08 -0.585874609864E-08 -0.638475271515E-08 -0.695822794272E-08 -0.758349429116E-08
 -0.826527133192E-08 -0.900871260591E-08 -0.981944600493E-08 -0.107036179505E-07 -0.116679417383E-07
 -0.127197504358E-07 -0.138670547793E-07 -0.151186065363E-07 -0.164839678647E-07 -0.179735872356E-07
 -0.195988825530E-07 -0.213723321566E-07 -0.233075744651E-07 -0.254195170885E-07 -0.277244563189E-07
 -0.302402079963E-07 -0.329862508441E-07 -0.359838834739E-07 -0.392563963737E-07 -0.428292603263E-07
 -0.467303328383E-07 -0.509900843180E-07 -0.556418459088E-07 -0.607220810643E-07 -0.662706831657E-07
 -0.723313016868E-07 -0.789516996812E-07 -0.861841455968E-07 -0.940858427686E-07 -0.102719400207E-06
 -0.112153348691E-06 -0.122462706557E-06 -0.133729599983E-06 -0.146043943051E-06 -0.159504183373E-06
 -0.174218119651E-06 -0.190303798095E-06 -0.207890495397E-06 -0.227119796586E-06 -0.248146777011E-06
 -0.271141298488E-06 -0.296289430708E-06 -0.323795010005E-06 -0.353881348819E-06 -0.386793110400E-06
 -0.422798364781E-06 -0.462190843554E-06 -0.505292412634E-06 -0.552455784178E-06 -0.604067490680E-06
 -0.660551146620E-06 -0.722371025454E-06 -0.790035982325E-06 -0.864103755901E-06 -0.945185685851E-06
 -0.103395188605E-05 -0.113113691731E-05 -0.123754600784E-05 -0.135406187394E-05 -0.148165219868E-05
 -0.162137783170E-05 -0.177440177933E-05 -0.194199906056E-05 -0.212556751205E-05 -0.232663963265E-05
 -0.254689556669E-05 -0.278817733488E-05 -0.305250443158E-05 -0.334209091833E-05 -0.365936415597E-05
 -0.400698533084E-05 -0.438787194483E-05 -0.480522245548E-05 -0.526254326870E-05 -0.576367830634E-05
 -0.631284139086E-05 -0.691465171174E-05 -0.757417266259E-05 -0.829695436467E-05 -0.908908022076E-05
 -0.995721787542E-05 -0.109086749910E-04 -0.119514602866E-04 -0.130943503260E-04 -0.143469625874E-04
 -0.157198353905E-04 -0.172245153126E-04 -0.188736527789E-04 -0.206811065718E-04 -0.226620580734E-04
 -0.248331361201E-04 -0.272125534328E-04 -0.298202556615E-04 -0.326780841788E-04 -0.358099538498E-04
 -0.392420471126E-04 -0.430030258152E-04 -0.471242623760E-04 -0.516400919667E-04 -0.565880875549E-04
 -0.620093597965E-04 -0.679488839295E-04 -0.744558559928E-04 -0.815840808820E-04 -0.893923949502E-04
 -0.979451260780E-04 -0.107312594358E-03 -0.117571656786E-03 -0.128806299604E-03 -0.141108282217E-03
 -0.154577836883E-03 -0.169324428702E-03 -0.185467580732E-03 -0.203137769410E-03 -0.222477395815E-03
 -0.243641838680E-03 -0.266800595452E-03 -0.292138518119E-03 -0.319857150923E-03 -0.350176177544E-03
 -0.383334985782E-03 -0.419594358220E-03 -0.459238297831E-03 -0.502575997991E-03 -0.549943966799E-03
 -0.601708316146E-03 -0.658267226395E-03 -0.720053598054E-03 -0.787537902221E-03 -0.861231242062E-03
 -0.941688637912E-03 -0.102951254900E-02 -0.112535664503E-02 -0.122992984111E-02 -0.134400060972E-02
 -0.146840158327E-02 -0.160403446101E-02 -0.175187523353E-02 -0.191297973811E-02 -0.208848955715E-02
 -0.227963827166E-02 -0.248775808047E-02 -0.271428679466E-02 -0.296077521518E-02 -0.322889489974E-02
 -0.352044632268E-02 -0.383736742907E-02 -0.418174258072E-02 -0.455581188871E-02 -0.496198092229E-02
 -0.540283077941E-02 -0.588112849889E-02 -0.639983778752E-02 -0.696213002903E-02 -0.757139553378E-02
 -0.823125497951E-02 -0.894557098414E-02 -0.971845974115E-02 -0.105543026368E-01 -0.114577577561E-01
 -0.124337711724E-01 -0.134875878990E-01 -0.146247623699E-01 -0.158511682990E-01 -0.171730077513E-01
 -0.185968192437E-01 -0.201294846736E-01 -0.217782348553E-01 -0.235506534200E-01 -0.254546788089E-01
 -0.274986040548E-01 -0.296910740060E-01 -0.320410795932E-01 -0.345579486849E-01 -0.372513330166E-01
 -0.401311906359E-01 -0.432077632847E-01 -0.464915481639E-01 -0.499932635891E-01 -0.537238081490E-01
 -0.576942130930E-01 -0.619155877865E-01 -0.663990581505E-01 -0.711556980277E-01 -0.761964533852E-01
 -0.815320591659E-01 -0.871729484770E-01 -0.931291537185E-01 -0.994101992567E-01 -0.106024985349E+00
 -0.112981663197E+00 -0.120287501178E+00 -0.127948742467E+00 -0.135970454391E+00 -0.144356370005E+00
 -0.153108722522E+00 -0.162228073450E+00 -0.171713135486E+00 -0.181560591493E+00 -0.191764911166E+00
 -0.202318167267E+00 -0.213209853626E+00 -0.224426707391E+00 -0.235952538288E+00 -0.247768067920E+00
 -0.259850782323E+00 -0.272174801202E+00 -0.284710767337E+00 -0.297425759764E+00 -0.310283234374E+00
 -0.323242995731E+00 -0.336261204083E+00 -0.349290421874E+00 -0.362279704288E+00 -0.375174737924E+00
 -0.387918029693E+00 -0.400449142818E+00 -0.412704966886E+00 -0.424619994765E+00 -0.436126565038E+00
 -0.447155025276E+00 -0.457633792753E+00 -0.467489343881E+00 -0.476646241888E+00 -0.485027375406E+00
 -0.492554561461E+00 -0.499149522528E+00 -0.504735052951E+00 -0.509236113889E+00 -0.512580702254E+00
 -0.514700501379E+00 -0.515531401770E+00 -0.515013967582E+00 -0.513093877689E+00 -0.509722331504E+00
 -0.504856392587E+00 -0.498459243402E+00 -0.490500334015E+00 -0.480955420056E+00 -0.469806494979E+00
 -0.457041628284E+00 -0.442654724392E+00 -0.426645217661E+00 -0.409017718287E+00 -0.389781622076E+00
 -0.368950694929E+00 -0.346542639701E+00 -0.322578650461E+00 -0.297082955094E+00 -0.270082344950E+00
 -0.241605686467E+00 -0.211683408671E+00 -0.180346959047E+00 -0.147628221350E+00 -0.113558890510E+00
 -0.781698028005E-01 -0.414902214685E-01 -0.354707839118E-02  0.356358308475E-01  0.760387084264E-01
  0.117646690632E+00  0.160450879446E+00  0.204449472120E+00  0.249648939968E+00  0.296065122325E+00
  0.343724020762E+00  0.392662088516E+00  0.442925997590E+00  0.494572203693E+00  0.547666912026E+00
  0.602287020153E+00  0.658522255156E+00  0.716478284767E+00  0.776280393658E+00  0.838077386241E+00
  0.902045593158E+00  0.968393024004E+00  0.103736378081E+01  0.110924285652E+01  0.118436143240E+01
  0.126310277842E+01  0.134590887582E+01  0.143328789883E+01  0.152582274231E+01  0.162418080449E+01
  0.172912531017E+01  0.184152850073E+01  0.196238708839E+01  0.000000000000E+00  0.000000000000E+00
  0.000000000000E+00  0.000000000000E+00  0.000000000000E+00  0.000000000000E+00  0.000000000000E+00
  0.000000000000E+00  0.000000000000E+00  0.000000000000E+00  0.000000000000E+00  0.000000000000E+00
  0.000000000000E+00  0.000000000000E+00  0.000000000000E+00  0.000000000000E+00  0.000000000000E+00
  0.000000000000E+00  0.000000000000E+00  0.000000000000E+00  0.000000000000E+00  0.000000000000E+00
  0.000000000000E+00  0.000000000000E+00  0.000000000000E+00  0.000000000000E+00  0.000000000000E+00
  0.000000000000E+00  0.000000000000E+00  0.000000000000E+00  0.000000000000E+00  0.000000000000E+00
  0.000000000000E+00  0.000000000000E+00  0.000000000000E+00  0.000000000000E+00  0.000000000000E+00
  0.000000000000E+00  0.000000000000E+00  0.000000000000E+00  0.000000000000E+00  0.000000000000E+00
  0.000000000000E+00  0.000000000000E+00  0.000000000000E+00  0.000000000000E+00  0.000000000000E+00
  0.000000000000E+00  0.000000000000E+00
 End of Dataset
  PAW_PBE S 06Sep2000                    
   6.00000000000000     
 parameters from PSCTR are:
   VRHFIN =S : s2p4
   LEXCH  = PE
   EATOM  =   276.8230 eV,   20.3459 Ry

   TITEL  = PAW_PBE S 06Sep2000
   LULTRA =        F    use ultrasoft PP ?
   IUNSCR =        1    unscreen: 0-lin 1-nonlin 2-no
   RPACOR =    1.500    partial core radius
   POMASS =   32.066; ZVAL   =    6.000    mass and valenz
   RCORE  =    1.900    outmost cutoff radius
   RWIGS  =    2.200; RWIGS  =    1.164    wigner-seitz radius (au A)
   ENMAX  =  258.689; ENMIN  =  194.016 eV
   ICORE  =        2    local potential
   LCOR   =        T    correct aug charges
   LPAW   =        T    paw PP
   EAUG   =  335.092
   DEXC   =    0.000
   RMAX   =    1.942    core radius for proj-oper
   RAUG   =    1.300    factor for augmentation sphere
   RDEP   =    1.954    radius for radial grids
   RDEPT  =    1.744    core radius for aug-charge
 
   Atomic configuration
    6 entries
     n  l   j            E        occ.
     1  0  0.50     -2405.8406   2.0000
     2  0  0.50      -211.7007   2.0000
     2  1  1.50      -156.4958   6.0000
     3  0  0.50       -17.2562   2.0000
     3  1  0.50        -7.0085   4.0000
     3  2  1.50        -6.8029   0.0000
   Description
     l       E           TYP  RCUT    TYP  RCUT
     0    -17.2561641     23  1.900
     0    -15.8743224     23  1.900
     1     -7.0085400     23  1.900
     1     -2.7779785     23  1.900
     2     -6.8029130     23  1.900
   Error from kinetic energy argument (eV)
   NDATA  =      100
   STEP   =   20.000   1.050
  72.2      68.7      66.9      63.4      61.7      58.3      55.0      53.3
  50.2      47.1      45.6      42.7      39.9      37.2      34.7      32.3
  30.0      27.8      25.8      22.9      21.2      19.6      17.3      15.9
  14.6      12.8      11.3      10.3      9.01      7.85      6.83      5.92
  5.13      4.43      3.82      3.28      2.67      2.28      1.84      1.56
  1.25     0.993     0.784     0.615     0.478     0.369     0.283     0.200
 0.149     0.102     0.687E-01 0.494E-01 0.323E-01 0.209E-01 0.127E-01 0.884E-02
 0.671E-02 0.553E-02 0.514E-02 0.503E-02 0.493E-02 0.472E-02 0.435E-02 0.377E-02
 0.320E-02 0.254E-02 0.195E-02 0.149E-02 0.113E-02 0.946E-03 0.844E-03 0.805E-03
 0.781E-03 0.741E-03 0.665E-03 0.575E-03 0.467E-03 0.373E-03 0.300E-03 0.263E-03
 0.244E-03 0.234E-03 0.219E-03 0.193E-03 0.161E-03 0.131E-03 0.111E-03 0.987E-04
 0.931E-04 0.872E-04 0.769E-04 0.651E-04 0.532E-04 0.466E-04 0.433E-04 0.405E-04
 0.356E-04 0.300E-04 0.251E-04 0.228E-04
END of PSCTR-controll parameters
 local part
   98.2657514061040     
  0.25157640E+02  0.25164091E+02  0.25172622E+02  0.25186821E+02  0.25206654E+02
  0.25232074E+02  0.25263018E+02  0.25299401E+02  0.25341121E+02  0.25388051E+02
  0.25440043E+02  0.25496925E+02  0.25558502E+02  0.25624558E+02  0.25694855E+02
  0.25769136E+02  0.25847124E+02  0.25928527E+02  0.26013035E+02  0.26100324E+02
  0.26190051E+02  0.26281860E+02  0.26375378E+02  0.26470219E+02  0.26565978E+02
  0.26662235E+02  0.26758557E+02  0.26854496E+02  0.26949591E+02  0.27043367E+02
  0.27135341E+02  0.27225019E+02  0.27311902E+02  0.27395479E+02  0.27475240E+02
  0.27550666E+02  0.27621239E+02  0.27686438E+02  0.27745744E+02  0.27798640E+02
  0.27844611E+02  0.27883150E+02  0.27913758E+02  0.27935945E+02  0.27949234E+02
  0.27953160E+02  0.27947278E+02  0.27931156E+02  0.27904385E+02  0.27866578E+02
  0.27817369E+02  0.27756421E+02  0.27683420E+02  0.27598084E+02  0.27500159E+02
  0.27389424E+02  0.27265693E+02  0.27128812E+02  0.26978666E+02  0.26815176E+02
  0.26638300E+02  0.26448037E+02  0.26244425E+02  0.26027542E+02  0.25797505E+02
  0.25554473E+02  0.25298644E+02  0.25030259E+02  0.24749594E+02  0.24456969E+02
  0.24152740E+02  0.23837301E+02  0.23511082E+02  0.23174550E+02  0.22828205E+02
  0.22472578E+02  0.22108230E+02  0.21735753E+02  0.21355762E+02  0.20968899E+02
  0.20575824E+02  0.20177220E+02  0.19773783E+02  0.19366226E+02  0.18955273E+02
  0.18541655E+02  0.18126109E+02  0.17709377E+02  0.17292198E+02  0.16875310E+02
  0.16459445E+02  0.16045325E+02  0.15633662E+02  0.15225153E+02  0.14820479E+02
  0.14420299E+02  0.14025254E+02  0.13635957E+02  0.13252997E+02  0.12876932E+02
  0.12508292E+02  0.12147572E+02  0.11795234E+02  0.11451704E+02  0.11117372E+02
  0.10792588E+02  0.10477664E+02  0.10172873E+02  0.98784452E+01  0.95945735E+01
  0.93214083E+01  0.90590595E+01  0.88075971E+01  0.85670508E+01  0.83374114E+01
  0.81186311E+01  0.79106248E+01  0.77132711E+01  0.75264139E+01  0.73498637E+01
  0.71833995E+01  0.70267703E+01  0.68796973E+01  0.67418758E+01  0.66129774E+01
  0.64926519E+01  0.63805299E+01  0.62762251E+01  0.61793363E+01  0.60894501E+01
  0.60061434E+01  0.59289854E+01  0.58575404E+01  0.57913701E+01  0.57300356E+01
  0.56731002E+01  0.56201313E+01  0.55707022E+01  0.55243951E+01  0.54808018E+01
  0.54395266E+01  0.54001872E+01  0.53624167E+01  0.53258651E+01  0.52902004E+01
  0.52551098E+01  0.52203007E+01  0.51855020E+01  0.51504642E+01  0.51149604E+01
  0.50787866E+01  0.50417616E+01  0.50037278E+01  0.49645507E+01  0.49241186E+01
  0.48823425E+01  0.48391558E+01  0.47945134E+01  0.47483910E+01  0.47007846E+01
  0.46517094E+01  0.46011988E+01  0.45493031E+01  0.44960887E+01  0.44416366E+01
  0.43860412E+01  0.43294088E+01  0.42718562E+01  0.42135096E+01  0.41545028E+01
  0.40949759E+01  0.40350741E+01  0.39749459E+01  0.39147420E+01  0.38546139E+01
  0.37947124E+01  0.37351867E+01  0.36761827E+01  0.36178423E+01  0.35603021E+01
  0.35036925E+01  0.34481366E+01  0.33937495E+01  0.33406379E+01  0.32888986E+01
  0.32386191E+01  0.31898760E+01  0.31427356E+01  0.30972530E+01  0.30534722E+01
  0.30114260E+01  0.29711360E+01  0.29326127E+01  0.28958557E+01  0.28608539E+01
  0.28275859E+01  0.27960207E+01  0.27661178E+01  0.27378278E+01  0.27110933E+01
  0.26858494E+01  0.26620243E+01  0.26395401E+01  0.26183136E+01  0.25982572E+01
  0.25792793E+01  0.25612857E+01  0.25441798E+01  0.25278637E+01  0.25122393E+01
  0.24972083E+01  0.24826740E+01  0.24685409E+01  0.24547163E+01  0.24411105E+01
  0.24276375E+01  0.24142156E+01  0.24007678E+01  0.23872224E+01  0.23735133E+01
  0.23595804E+01  0.23453699E+01  0.23308344E+01  0.23159334E+01  0.23006329E+01
  0.22849061E+01  0.22687327E+01  0.22520994E+01  0.22349994E+01  0.22174325E+01
  0.21994048E+01  0.21809281E+01  0.21620201E+01  0.21427039E+01  0.21230074E+01
  0.21029630E+01  0.20826074E+01  0.20619808E+01  0.20411265E+01  0.20200906E+01
  0.19989213E+01  0.19776685E+01  0.19563829E+01  0.19351163E+01  0.19139203E+01
  0.18928462E+01  0.18719445E+01  0.18512644E+01  0.18308534E+01  0.18107568E+01
  0.17910176E+01  0.17716760E+01  0.17527689E+01  0.17343298E+01  0.17163889E+01
  0.16989723E+01  0.16821020E+01  0.16657963E+01  0.16500690E+01  0.16349297E+01
  0.16203840E+01  0.16064331E+01  0.15930743E+01  0.15803007E+01  0.15681017E+01
  0.15564630E+01  0.15453668E+01  0.15347920E+01  0.15247146E+01  0.15151078E+01
  0.15059423E+01  0.14971869E+01  0.14888082E+01  0.14807716E+01  0.14730413E+01
  0.14655806E+01  0.14583525E+01  0.14513195E+01  0.14444446E+01  0.14376913E+01
  0.14310236E+01  0.14244068E+01  0.14178075E+01  0.14111940E+01  0.14045364E+01
  0.13978068E+01  0.13909796E+01  0.13840318E+01  0.13769427E+01  0.13696945E+01
  0.13622721E+01  0.13546633E+01  0.13468588E+01  0.13388521E+01  0.13306396E+01
  0.13222205E+01  0.13135969E+01  0.13047733E+01  0.12957571E+01  0.12865577E+01
  0.12771873E+01  0.12676597E+01  0.12579909E+01  0.12481986E+01  0.12383020E+01
  0.12283216E+01  0.12182788E+01  0.12081960E+01  0.11980962E+01  0.11880027E+01
  0.11779389E+01  0.11679282E+01  0.11579935E+01  0.11481575E+01  0.11384419E+01
  0.11288675E+01  0.11194540E+01  0.11102199E+01  0.11011822E+01  0.10923563E+01
  0.10837559E+01  0.10753930E+01  0.10672777E+01  0.10594180E+01  0.10518202E+01
  0.10444883E+01  0.10374244E+01  0.10306288E+01  0.10240996E+01  0.10178330E+01
  0.10118235E+01  0.10060636E+01  0.10005445E+01  0.99525539E+00  0.99018432E+00
  0.98531794E+00  0.98064174E+00  0.97614021E+00  0.97179699E+00  0.96759505E+00
  0.96351683E+00  0.95954443E+00  0.95565977E+00  0.95184476E+00  0.94808145E+00
  0.94435221E+00  0.94063986E+00  0.93692785E+00  0.93320035E+00  0.92944243E+00
  0.92564017E+00  0.92178074E+00  0.91785253E+00  0.91384521E+00  0.90974982E+00
  0.90555879E+00  0.90126602E+00  0.89686687E+00  0.89235820E+00  0.88773834E+00
  0.88300711E+00  0.87816575E+00  0.87321693E+00  0.86816464E+00  0.86301419E+00
  0.85777206E+00  0.85244588E+00  0.84704429E+00  0.84157688E+00  0.83605401E+00
  0.83048675E+00  0.82488675E+00  0.81926609E+00  0.81363719E+00  0.80801265E+00
  0.80240517E+00  0.79682736E+00  0.79129170E+00  0.78581034E+00  0.78039506E+00
  0.77505710E+00  0.76980710E+00  0.76465498E+00  0.75960987E+00  0.75468002E+00
  0.74987275E+00  0.74519436E+00  0.74065013E+00  0.73624425E+00  0.73197983E+00
  0.72785883E+00  0.72388212E+00  0.72004945E+00  0.71635947E+00  0.71280977E+00
  0.70939690E+00  0.70611642E+00  0.70296297E+00  0.69993031E+00  0.69701141E+00
  0.69419852E+00  0.69148325E+00  0.68885667E+00  0.68630938E+00  0.68383163E+00
  0.68141341E+00  0.67904452E+00  0.67671469E+00  0.67441369E+00  0.67213138E+00
  0.66985784E+00  0.66758345E+00  0.66529896E+00  0.66299560E+00  0.66066511E+00
  0.65829988E+00  0.65589293E+00  0.65343803E+00  0.65092970E+00  0.64836329E+00
  0.64573496E+00  0.64304175E+00  0.64028155E+00  0.63745314E+00  0.63455616E+00
  0.63159113E+00  0.62855939E+00  0.62546313E+00  0.62230529E+00  0.61908957E+00
  0.61582036E+00  0.61250269E+00  0.60914218E+00  0.60574495E+00  0.60231756E+00
  0.59886697E+00  0.59540042E+00  0.59192540E+00  0.58844952E+00  0.58498050E+00
  0.58152604E+00  0.57809377E+00  0.57469118E+00  0.57132554E+00  0.56800382E+00
  0.56473266E+00  0.56151826E+00  0.55836639E+00  0.55528225E+00  0.55227052E+00
  0.54933527E+00  0.54647992E+00  0.54370725E+00  0.54101938E+00  0.53841771E+00
  0.53590297E+00  0.53347520E+00  0.53113376E+00  0.52887732E+00  0.52670391E+00
  0.52461095E+00  0.52259525E+00  0.52065306E+00  0.51878013E+00  0.51697175E+00
  0.51522278E+00  0.51352772E+00  0.51188078E+00  0.51027593E+00  0.50870692E+00
  0.50716740E+00  0.50565097E+00  0.50415118E+00  0.50266168E+00  0.50117620E+00
  0.49968867E+00  0.49819323E+00  0.49668430E+00  0.49515664E+00  0.49360538E+00
  0.49202606E+00  0.49041470E+00  0.48876776E+00  0.48708224E+00  0.48535566E+00
  0.48358608E+00  0.48177212E+00  0.47991295E+00  0.47800832E+00  0.47605853E+00
  0.47406439E+00  0.47202730E+00  0.46994911E+00  0.46783220E+00  0.46567937E+00
  0.46349387E+00  0.46127930E+00  0.45903963E+00  0.45677910E+00  0.45450222E+00
  0.45221370E+00  0.44991839E+00  0.44762128E+00  0.44532739E+00  0.44304175E+00
  0.44076937E+00  0.43851514E+00  0.43628386E+00  0.43408010E+00  0.43190823E+00
  0.42977236E+00  0.42767627E+00  0.42562345E+00  0.42361697E+00  0.42165955E+00
  0.41975348E+00  0.41790062E+00  0.41610239E+00  0.41435976E+00  0.41267326E+00
  0.41104292E+00  0.40946837E+00  0.40794876E+00  0.40648282E+00  0.40506886E+00
  0.40370480E+00  0.40238819E+00  0.40111623E+00  0.39988581E+00  0.39869355E+00
  0.39753581E+00  0.39640878E+00  0.39530844E+00  0.39423068E+00  0.39317128E+00
  0.39212598E+00  0.39109051E+00  0.39006065E+00  0.38903224E+00  0.38800123E+00
  0.38696373E+00  0.38591604E+00  0.38485467E+00  0.38377638E+00  0.38267823E+00
  0.38155755E+00  0.38041201E+00  0.37923964E+00  0.37803879E+00  0.37680821E+00
  0.37554700E+00  0.37425463E+00  0.37293099E+00  0.37157630E+00  0.37019117E+00
  0.36877657E+00  0.36733381E+00  0.36586451E+00  0.36437062E+00  0.36285438E+00
  0.36131826E+00  0.35976498E+00  0.35819745E+00  0.35661875E+00  0.35503210E+00
  0.35344084E+00  0.35184834E+00  0.35025806E+00  0.34867341E+00  0.34709781E+00
  0.34553461E+00  0.34398705E+00  0.34245825E+00  0.34095118E+00  0.33946862E+00
  0.33801314E+00  0.33658708E+00  0.33519252E+00  0.33383128E+00  0.33250489E+00
  0.33121459E+00  0.32996129E+00  0.32874563E+00  0.32756789E+00  0.32642808E+00
  0.32532586E+00  0.32426062E+00  0.32323141E+00  0.32223704E+00  0.32127602E+00
  0.32034661E+00  0.31944684E+00  0.31857453E+00  0.31772730E+00  0.31690262E+00
  0.31609782E+00  0.31531011E+00  0.31453663E+00  0.31377445E+00  0.31302062E+00
  0.31227220E+00  0.31152626E+00  0.31077994E+00  0.31003046E+00  0.30927516E+00
  0.30851150E+00  0.30773711E+00  0.30694979E+00  0.30614755E+00  0.30532862E+00
  0.30449143E+00  0.30363470E+00  0.30275735E+00  0.30185859E+00  0.30093789E+00
  0.29999498E+00  0.29902985E+00  0.29804277E+00  0.29703425E+00  0.29600507E+00
  0.29495621E+00  0.29388893E+00  0.29280466E+00  0.29170506E+00  0.29059193E+00
  0.28946725E+00  0.28833313E+00  0.28719180E+00  0.28604556E+00  0.28489679E+00
  0.28374792E+00  0.28260139E+00  0.28145963E+00  0.28032505E+00  0.27920001E+00
  0.27808678E+00  0.27698754E+00  0.27590437E+00  0.27483918E+00  0.27379373E+00
  0.27276964E+00  0.27176831E+00  0.27079095E+00  0.26983857E+00  0.26891197E+00
  0.26801170E+00  0.26713813E+00  0.26629136E+00  0.26547130E+00  0.26467762E+00
  0.26390977E+00  0.26316699E+00  0.26244833E+00  0.26175264E+00  0.26107859E+00
  0.26042469E+00  0.25978930E+00  0.25917065E+00  0.25856688E+00  0.25797600E+00
  0.25739598E+00  0.25682473E+00  0.25626012E+00  0.25570002E+00  0.25514231E+00
  0.25458488E+00  0.25402570E+00  0.25346278E+00  0.25289424E+00  0.25231830E+00
  0.25173330E+00  0.25113772E+00  0.25053020E+00  0.24990952E+00  0.24927466E+00
  0.24862475E+00  0.24795914E+00  0.24727735E+00  0.24657909E+00  0.24586429E+00
  0.24513304E+00  0.24438566E+00  0.24362261E+00  0.24284457E+00  0.24205239E+00
  0.24124705E+00  0.24042971E+00  0.23960167E+00  0.23876433E+00  0.23791921E+00
  0.23706793E+00  0.23621217E+00  0.23535367E+00  0.23449423E+00  0.23363564E+00
  0.23277972E+00  0.23192828E+00  0.23108307E+00  0.23024583E+00  0.22941820E+00
  0.22860177E+00  0.22779802E+00  0.22700830E+00  0.22623388E+00  0.22547587E+00
  0.22473523E+00  0.22401278E+00  0.22330918E+00  0.22262493E+00  0.22196035E+00
  0.22131561E+00  0.22069069E+00  0.22008543E+00  0.21949948E+00  0.21893232E+00
  0.21838332E+00  0.21785165E+00  0.21733637E+00  0.21683642E+00  0.21635059E+00
  0.21587760E+00  0.21541606E+00  0.21496451E+00  0.21452144E+00  0.21408527E+00
  0.21365442E+00  0.21322726E+00  0.21280219E+00  0.21237761E+00  0.21195196E+00
  0.21152372E+00  0.21109143E+00  0.21065370E+00  0.21020925E+00  0.20975688E+00
  0.20929550E+00  0.20882415E+00  0.20834200E+00  0.20784833E+00  0.20734261E+00
  0.20682440E+00  0.20629344E+00  0.20574961E+00  0.20519295E+00  0.20462362E+00
  0.20404195E+00  0.20344839E+00  0.20284356E+00  0.20222816E+00  0.20160304E+00
  0.20096916E+00  0.20032758E+00  0.19967942E+00  0.19902591E+00  0.19836834E+00
  0.19770802E+00  0.19704633E+00  0.19638465E+00  0.19572439E+00  0.19506694E+00
  0.19441368E+00  0.19376596E+00  0.19312508E+00  0.19249228E+00  0.19186874E+00
  0.19125556E+00  0.19065374E+00  0.19006419E+00  0.18948770E+00  0.18892495E+00
  0.18837650E+00  0.18784279E+00  0.18732413E+00  0.18682069E+00  0.18633251E+00
  0.18585951E+00  0.18540148E+00  0.18495806E+00  0.18452880E+00  0.18411311E+00
  0.18371029E+00  0.18331956E+00  0.18294001E+00  0.18257067E+00  0.18221048E+00
  0.18185834E+00  0.18151306E+00  0.18117344E+00  0.18083824E+00  0.18050621E+00
  0.18017608E+00  0.17984661E+00  0.17951655E+00  0.17918470E+00  0.17884991E+00
  0.17851106E+00  0.17816712E+00  0.17781712E+00  0.17746016E+00  0.17709547E+00
  0.17672235E+00  0.17634020E+00  0.17594854E+00  0.17554701E+00  0.17513535E+00
  0.17471343E+00  0.17428121E+00  0.17383881E+00  0.17338642E+00  0.17292437E+00
  0.17245310E+00  0.17197313E+00  0.17148509E+00  0.17098972E+00  0.17048781E+00
  0.16998024E+00  0.16946794E+00  0.16895192E+00  0.16843322E+00  0.16791290E+00
  0.16739207E+00  0.16687182E+00  0.16635327E+00  0.16583752E+00  0.16532564E+00
  0.16481869E+00  0.16431766E+00  0.16382352E+00  0.16333717E+00  0.16285942E+00
  0.16239103E+00  0.16193266E+00  0.16148491E+00  0.16104824E+00  0.16062304E+00
  0.16020960E+00  0.15980810E+00  0.15941861E+00  0.15904111E+00  0.15867547E+00
  0.15832144E+00  0.15797870E+00  0.15764683E+00  0.15732529E+00  0.15701350E+00
  0.15671076E+00  0.15641631E+00  0.15612935E+00  0.15584901E+00  0.15557435E+00
  0.15530444E+00  0.15503829E+00  0.15477489E+00  0.15451325E+00  0.15425237E+00
  0.15399124E+00  0.15372890E+00  0.15346440E+00  0.15319685E+00  0.15292540E+00
  0.15264924E+00  0.15236764E+00  0.15207994E+00  0.15178557E+00  0.15148400E+00
  0.15117483E+00  0.15085773E+00  0.15053246E+00  0.15019887E+00  0.14985693E+00
  0.14950667E+00  0.14914823E+00  0.14878185E+00  0.14840782E+00  0.14802657E+00
  0.14763856E+00  0.14724436E+00  0.14684459E+00  0.14643994E+00  0.14603115E+00
  0.14561900E+00  0.14520433E+00  0.14478799E+00  0.14437086E+00  0.14395383E+00
  0.14353780E+00  0.14312365E+00  0.14271227E+00  0.14230452E+00  0.14190121E+00
  0.14150315E+00  0.14111106E+00  0.14072564E+00  0.14034751E+00  0.13997725E+00
  0.13961535E+00  0.13926222E+00  0.13891819E+00  0.13858354E+00  0.13825844E+00
  0.13794297E+00  0.13763714E+00  0.13734087E+00  0.13705400E+00  0.13677628E+00
  0.13650740E+00  0.13624696E+00  0.13599447E+00  0.13574943E+00  0.13551121E+00
  0.13527919E+00  0.13505266E+00  0.13483089E+00  0.13461310E+00  0.13439851E+00
  0.13418631E+00  0.13397568E+00  0.13376579E+00  0.13355584E+00  0.13334504E+00
  0.13313259E+00  0.13291776E+00  0.13269984E+00  0.13247816E+00  0.13225211E+00
  0.13202112E+00  0.13178471E+00  0.13154244E+00  0.13129395E+00  0.13103895E+00
  0.13077722E+00  0.13050862E+00  0.13023309E+00  0.12995066E+00  0.12966140E+00
  0.12936548E+00  0.12906315E+00  0.12875471E+00  0.12844055E+00  0.12812111E+00
  0.12779688E+00  0.12746841E+00  0.12713631E+00  0.12680121E+00  0.12646379E+00
  0.12612476E+00  0.12578482E+00  0.12544472E+00  0.12510519E+00  0.12476698E+00
  0.12443081E+00  0.12409740E+00  0.12376744E+00  0.12344158E+00  0.12312046E+00
  0.12280466E+00  0.12249471E+00  0.12219111E+00  0.12189426E+00  0.12160455E+00
  0.12132226E+00  0.12104763E+00  0.12078083E+00  0.12052195E+00  0.12027102E+00
  0.12002799E+00  0.11979273E+00  0.11956508E+00  0.11934477E+00  0.11913150E+00
  0.11892489E+00  0.11872451E+00  0.11852988E+00  0.11834047E+00  0.11815570E+00
  0.11797499E+00  0.11779768E+00  0.11762313E+00  0.11745066E+00  0.11727959E+00
  0.11710923E+00  0.11693891E+00  0.11676795E+00  0.11659570E+00  0.11642152E+00
  0.11624482E+00  0.11606502E+00  0.11588161E+00  0.11569409E+00  0.11550204E+00
  0.11530508E+00  0.11510289E+00  0.11489521E+00  0.11468183E+00  0.11446264E+00
  0.11423756E+00  0.11400657E+00  0.11376975E+00  0.11352722E+00  0.11327915E+00
 gradient corrections used for XC
           5
 core charge-density (partial)
  0.46517955E+00  0.46502850E+00  0.46457564E+00  0.46382177E+00  0.46276827E+00
  0.46141705E+00  0.45977054E+00  0.45783173E+00  0.45560409E+00  0.45309164E+00
  0.45029887E+00  0.44723076E+00  0.44389278E+00  0.44029082E+00  0.43643124E+00
  0.43232080E+00  0.42796668E+00  0.42337642E+00  0.41855793E+00  0.41351947E+00
  0.40826960E+00  0.40281717E+00  0.39717130E+00  0.39134138E+00  0.38533698E+00
  0.37916788E+00  0.37284405E+00  0.36637556E+00  0.35977263E+00  0.35304556E+00
  0.34620473E+00  0.33926054E+00  0.33222342E+00  0.32510378E+00  0.31791202E+00
  0.31065847E+00  0.30335338E+00  0.29600689E+00  0.28862905E+00  0.28122972E+00
  0.27381864E+00  0.26640534E+00  0.25899917E+00  0.25160923E+00  0.24424442E+00
  0.23691337E+00  0.22962446E+00  0.22238577E+00  0.21520512E+00  0.20809001E+00
  0.20104764E+00  0.19408488E+00  0.18720829E+00  0.18042409E+00  0.17373816E+00
  0.16715603E+00  0.16068291E+00  0.15432364E+00  0.14808272E+00  0.14196430E+00
  0.13597217E+00  0.13010979E+00  0.12438028E+00  0.11878639E+00  0.11333057E+00
  0.10801491E+00  0.10284120E+00  0.97810886E-01  0.92925120E-01  0.88184744E-01
  0.83590304E-01  0.79142061E-01  0.74839999E-01  0.70683834E-01  0.66673024E-01
  0.62806780E-01  0.59084080E-01  0.55503673E-01  0.52064097E-01  0.48763687E-01
  0.45600588E-01  0.42572766E-01  0.39678018E-01  0.36913987E-01  0.34278171E-01
  0.31767938E-01  0.29380532E-01  0.27113089E-01  0.24962648E-01  0.22926158E-01
  0.21000494E-01  0.19182465E-01  0.17468822E-01  0.15856275E-01  0.14341494E-01
  0.12921126E-01  0.11591798E-01  0.10350133E-01  0.91927487E-02  0.81162751E-02
  0.71173561E-02  0.61926591E-02  0.53388815E-02  0.45527570E-02  0.38310619E-02
  0.31706209E-02  0.25683122E-02  0.20210724E-02  0.15259012E-02  0.10798656E-02
  0.68010315E-03  0.32382605E-03  0.83235904E-05 -0.26903495E-03 -0.51079806E-03
 -0.71943009E-03 -0.89730957E-03 -0.10467280E-02 -0.11698888E-02 -0.12689066E-02
 -0.13458071E-02 -0.14025266E-02 -0.14409125E-02 -0.14627232E-02 -0.14696294E-02
 -0.14632144E-02 -0.14449754E-02 -0.14163248E-02 -0.13785916E-02 -0.13330227E-02
 -0.12807852E-02 -0.12229680E-02 -0.11605838E-02 -0.10945713E-02 -0.10257975E-02
 -0.95505984E-03 -0.88308896E-03 -0.81055084E-03 -0.73804947E-03 -0.66612942E-03
 -0.59527843E-03 -0.52593006E-03 -0.45846628E-03 -0.39322015E-03 -0.33047845E-03
 -0.27048430E-03 -0.21343975E-03 -0.15950836E-03 -0.10881772E-03 -0.61461966E-04
 -0.17504176E-04  0.23021206E-04  0.60106059E-04  0.93766327E-04  0.12403982E-03
  0.15098410E-03  0.17467442E-03  0.19520180E-03  0.21267106E-03  0.22719912E-03
  0.23891319E-03  0.24794918E-03  0.25445013E-03  0.25856479E-03  0.26044617E-03
  0.26025031E-03  0.25813507E-03  0.25425898E-03  0.24878021E-03  0.24185565E-03
  0.23364000E-03  0.22428500E-03  0.21393869E-03  0.20274481E-03  0.19084216E-03
  0.17836418E-03  0.16543849E-03  0.15218648E-03  0.13872309E-03  0.12515649E-03
  0.11158794E-03  0.98111604E-04  0.84814537E-04  0.71776586E-04  0.59070418E-04
  0.46761570E-04  0.34908528E-04  0.23562848E-04  0.12769311E-04  0.25660971E-05
 -0.70150012E-05 -0.15948354E-04 -0.24214241E-04 -0.31798586E-04 -0.38692673E-04
 -0.44892850E-04 -0.50400226E-04 -0.55220352E-04 -0.59362908E-04 -0.62841376E-04
 -0.65672718E-04 -0.67877050E-04 -0.69477319E-04 -0.70498989E-04 -0.70969723E-04
 -0.70919078E-04 -0.70378205E-04 -0.69379561E-04 -0.67956627E-04 -0.66143641E-04
 -0.63975339E-04 -0.61486712E-04 -0.58712773E-04 -0.55688341E-04 -0.52447833E-04
 -0.49025081E-04 -0.45453153E-04 -0.41764192E-04 -0.37989271E-04 -0.34158267E-04
 -0.30299737E-04 -0.26440821E-04 -0.22607153E-04 -0.18822788E-04 -0.15110140E-04
 -0.11489937E-04 -0.79811833E-05 -0.46011400E-05 -0.13653115E-05  0.17125530E-05
  0.46204500E-05  0.73481012E-05  0.98869241E-05  0.12229995E-04  0.14372003E-04
  0.16309196E-04  0.18039325E-04  0.19561577E-04  0.20876504E-04  0.21985951E-04
  0.22892975E-04  0.23601768E-04  0.24117568E-04  0.24446578E-04  0.24595874E-04
  0.24573322E-04  0.24387486E-04  0.24047543E-04  0.23563196E-04  0.22944584E-04
  0.22202204E-04  0.21346824E-04  0.20389407E-04  0.19341032E-04  0.18212819E-04
  0.17015864E-04  0.15761165E-04  0.14459565E-04  0.13121689E-04  0.11757891E-04
  0.10378202E-04  0.89922860E-05  0.76093952E-05  0.62383340E-05  0.48874255E-05
  0.35644829E-05  0.22767849E-05  0.10310563E-05 -0.16654870E-06 -0.13104572E-05
 -0.23956861E-05 -0.34178454E-05 -0.43731382E-05 -0.52583579E-05 -0.60708806E-05
 -0.68086557E-05 -0.74701927E-05 -0.80545454E-05 -0.85612940E-05 -0.89905239E-05
 -0.93428039E-05 -0.96191605E-05 -0.98210528E-05 -0.99503439E-05 -0.10009273E-04
 -0.10000423E-04 -0.99266957E-05 -0.97912724E-05 -0.95975891E-05 -0.93493015E-05
 -0.90502544E-05 -0.87044498E-05 -0.83160157E-05 -0.78891762E-05 -0.74282209E-05
 -0.69374766E-05 -0.64212787E-05 -0.58839448E-05 -0.53297488E-05 -0.47628965E-05
 -0.41875031E-05 -0.36075709E-05 -0.30269702E-05 -0.24494205E-05 -0.18784742E-05
 -0.13175011E-05 -0.76967546E-06 -0.23796438E-06  0.27488230E-06  0.76634008E-06
  0.12341164E-05  0.16761554E-05  0.20906416E-05  0.24760010E-05  0.28309019E-05
  0.31542532E-05  0.34452022E-05  0.37031301E-05  0.39276473E-05  0.41185867E-05
  0.42759965E-05  0.44001314E-05  0.44914434E-05  0.45505718E-05  0.45783319E-05
  0.45757034E-05  0.45438188E-05  0.44839502E-05  0.43974966E-05  0.42859709E-05
  0.41509859E-05  0.39942413E-05  0.38175099E-05  0.36226244E-05  0.34114634E-05
  0.31859390E-05  0.29479836E-05  0.26995373E-05  0.24425360E-05  0.21788995E-05
  0.19105207E-05  0.16392548E-05  0.13669093E-05  0.10952349E-05  0.82591641E-06
  0.56056541E-06  0.30071251E-06  0.47801056E-07 -0.19681862E-06 -0.43189424E-06
 -0.65627574E-06 -0.86891880E-06 -0.10688875E-05 -0.12553563E-05 -0.14276114E-05
 -0.15850510E-05 -0.17271855E-05 -0.18536362E-05 -0.19641343E-05 -0.20585186E-05
 -0.21367329E-05 -0.21988227E-05 -0.22449317E-05 -0.22752976E-05 -0.22902473E-05
 -0.22901921E-05 -0.22756227E-05 -0.22471029E-05 -0.22052644E-05 -0.21508005E-05
 -0.20844597E-05 -0.20070395E-05 -0.19193799E-05 -0.18223572E-05 -0.17168768E-05
 -0.16038674E-05 -0.14842745E-05 -0.13590538E-05 -0.12291652E-05 -0.10955669E-05
 -0.95920973E-06 -0.82103131E-06 -0.68195096E-06 -0.54286465E-06 -0.40464027E-06
 -0.26811324E-06 -0.13408247E-06 -0.33066225E-08  0.12349924E-06  0.24566664E-06
  0.36257631E-06  0.47366042E-06  0.57840448E-06  0.67634875E-06  0.76708943E-06
  0.85027936E-06  0.92562840E-06  0.99290347E-06  0.10519282E-05  0.11025824E-05
  0.11448008E-05  0.11785721E-05  0.12039374E-05  0.12209881E-05  0.12298640E-05
  0.12307513E-05  0.12238794E-05  0.12095189E-05  0.11879783E-05  0.11596014E-05
  0.11247636E-05  0.10838692E-05  0.10373480E-05  0.98565162E-06  0.92925058E-06
  0.86863055E-06  0.80428908E-06  0.73673226E-06  0.66647135E-06  0.59401953E-06
  0.51988875E-06  0.44458666E-06  0.36861361E-06  0.29245985E-06  0.21660283E-06
  0.14150469E-06  0.67609829E-07 -0.46572225E-08 -0.74893867E-07 -0.14272125E-06
 -0.20778590E-06 -0.26976114E-06 -0.32834838E-06 -0.38327806E-06 -0.43431056E-06
 -0.48123677E-06 -0.52387855E-06 -0.56208893E-06 -0.59575214E-06 -0.62478350E-06
 -0.64912900E-06 -0.66876487E-06 -0.68369686E-06 -0.69395938E-06 -0.69961457E-06
 -0.70075110E-06 -0.69748297E-06 -0.68994810E-06 -0.67830688E-06 -0.66274056E-06
 -0.64344959E-06 -0.62065193E-06 -0.59458121E-06 -0.56548492E-06 -0.53362255E-06
 -0.49926368E-06 -0.46268606E-06 -0.42417374E-06 -0.38401518E-06 -0.34250137E-06
 -0.29992397E-06 -0.25657359E-06 -0.21273801E-06 -0.16870049E-06 -0.12473821E-06
 -0.81120740E-07 -0.38108570E-07  0.40482071E-08  0.45111154E-07  0.84854635E-07
  0.12306686E-06  0.15955080E-06  0.19412504E-06  0.22662444E-06  0.25690074E-06
  0.28482303E-06  0.31027814E-06  0.33317080E-06  0.35342382E-06  0.37097813E-06
  0.38579260E-06  0.39784392E-06  0.40712623E-06  0.41365080E-06  0.41744543E-06
  0.41855398E-06  0.41703562E-06  0.41296414E-06  0.40642712E-06  0.39752507E-06
  0.38637050E-06  0.37308693E-06  0.35780790E-06  0.34067587E-06  0.32184120E-06
  0.30146099E-06  0.27969799E-06  0.25671946E-06  0.23269608E-06  0.20780080E-06
  0.18220773E-06  0.15609110E-06  0.12962416E-06  0.10297816E-06  0.76321377E-07
  0.49818150E-07  0.23627982E-07 -0.20953147E-08 -0.27204412E-07 -0.51559208E-07
 -0.75027508E-07 -0.97485635E-07 -0.11881898E-06 -0.13892249E-06 -0.15770108E-06
 -0.17506996E-06 -0.19095492E-06 -0.20529257E-06 -0.21803038E-06 -0.22912686E-06
 -0.23855147E-06 -0.24628458E-06 -0.25231735E-06 -0.25665153E-06 -0.25929918E-06
 -0.26028241E-06 -0.25963295E-06 -0.25739181E-06 -0.25360876E-06 -0.24834187E-06
 -0.24165694E-06 -0.23362695E-06 -0.22433143E-06 -0.21385586E-06 -0.20229099E-06
 -0.18973219E-06 -0.17627875E-06 -0.16203322E-06 -0.14710067E-06 -0.13158806E-06
 -0.11560347E-06 -0.99255497E-07 -0.82652541E-07 -0.65902160E-07 -0.49110443E-07
 -0.32381394E-07 -0.15816351E-07  0.48657199E-09  0.16433006E-07  0.31932820E-07
  0.46900571E-07  0.61255925E-07  0.74924024E-07  0.87835830E-07  0.99928410E-07
  0.11114519E-06  0.12143615E-06  0.13075800E-06  0.13907430E-06  0.14635549E-06
  0.15257900E-06  0.15772917E-06  0.16179720E-06  0.16478111E-06  0.16668555E-06
  0.16752166E-06  0.16730686E-06  0.16606461E-06  0.16382412E-06  0.16062009E-06
  0.15649237E-06  0.15148558E-06  0.14564877E-06  0.13903504E-06  0.13170109E-06
  0.12370686E-06  0.11511503E-06  0.10599065E-06  0.96400641E-07  0.86413401E-07
  0.76098318E-07  0.65525351E-07  0.54764588E-07  0.43885821E-07  0.32958127E-07
  0.22049467E-07  0.11226295E-07  0.55318398E-09 -0.99075204E-08 -0.20096038E-07
 -0.29955461E-07 -0.39432042E-07 -0.48475453E-07 -0.57039026E-07 -0.65079954E-07
 -0.72559479E-07 -0.79443042E-07 -0.85700410E-07 -0.91305769E-07 -0.96237793E-07
 -0.10047969E-06 -0.10401919E-06 -0.10684856E-06 -0.10896455E-06 -0.11036831E-06
 -0.11106531E-06 -0.11106520E-06 -0.11038172E-06 -0.10903246E-06 -0.10703875E-06
 -0.10442542E-06 -0.10122056E-06 -0.97455353E-07 -0.93163750E-07 -0.88382263E-07
 -0.83149670E-07 -0.77506741E-07 -0.71495955E-07 -0.65161203E-07 -0.58547502E-07
 -0.51700695E-07 -0.44667161E-07 -0.37493520E-07 -0.30226350E-07 -0.22911903E-07
 -0.15595831E-07 -0.83229227E-08 -0.11368477E-08  0.59200869E-08  0.12807166E-07
  0.19485483E-07  0.25918142E-07  0.32070441E-07  0.37910043E-07  0.43407124E-07
  0.48534509E-07  0.53267785E-07  0.57585397E-07  0.61468725E-07  0.64902142E-07
  0.67873050E-07  0.70371905E-07  0.72392209E-07  0.73930503E-07  0.74986321E-07
  0.75562145E-07  0.75663331E-07  0.75298024E-07  0.74477057E-07  0.73213836E-07
  0.71524211E-07  0.69426334E-07  0.66940510E-07  0.64089028E-07  0.60895998E-07
  0.57387163E-07  0.53589721E-07  0.49532125E-07  0.45243898E-07  0.40755425E-07
  0.36097761E-07  0.31302425E-07  0.26401203E-07  0.21425953E-07  0.16408405E-07
  0.11379978E-07  0.63715888E-08  0.14134790E-08 -0.34649592E-08 -0.82353443E-08
 -0.12870460E-07 -0.17344399E-07 -0.21632696E-07 -0.25712450E-07 -0.29562438E-07
 -0.33163208E-07 -0.36497171E-07 -0.39548672E-07 -0.42304050E-07 -0.44751687E-07
 -0.46882039E-07 -0.48687663E-07 -0.50163220E-07 -0.51305472E-07 -0.52113266E-07
 -0.52587502E-07 -0.52731093E-07 -0.52548913E-07 -0.52047730E-07 -0.51236138E-07
 -0.50124465E-07 -0.48724689E-07 -0.47050329E-07 -0.45116343E-07 -0.42939007E-07
 -0.40535798E-07 -0.37925264E-07 -0.35126897E-07 -0.32160994E-07 -0.29048525E-07
 -0.25810991E-07 -0.22470286E-07 -0.19048558E-07 -0.15568070E-07 -0.12051063E-07
 -0.85196236E-08 -0.49955493E-08 -0.15002246E-08  0.19455030E-08  0.53214398E-08
  0.86081572E-08  0.11787096E-07  0.14840665E-07  0.17752332E-07  0.20506701E-07
  0.23089595E-07  0.25488113E-07  0.27690692E-07  0.29687154E-07  0.31468741E-07
  0.33028149E-07  0.34359546E-07  0.35458581E-07  0.36322389E-07  0.36949582E-07
  0.37340234E-07  0.37495853E-07  0.37419354E-07  0.37115013E-07  0.36588421E-07
  0.35846428E-07  0.34897081E-07  0.33749555E-07  0.32414082E-07  0.30901867E-07
  0.29225007E-07  0.27396403E-07  0.25429668E-07  0.23339034E-07  0.21139257E-07
  0.18845514E-07  0.16473310E-07  0.14038377E-07  0.11556572E-07  0.90437833E-08
  0.65158328E-08  0.39883789E-08  0.14768264E-08 -0.10037630E-08 -0.34387570E-08
 -0.58140339E-08 -0.81160602E-08 -0.10331963E-07 -0.12449598E-07 -0.14457610E-07
 -0.16345492E-07 -0.18103630E-07 -0.19723355E-07 -0.21196972E-07 -0.22517799E-07
 -0.23680183E-07 -0.24679528E-07 -0.25512296E-07 -0.26176021E-07 -0.26669300E-07
 -0.26991788E-07 -0.27144185E-07 -0.27128210E-07 -0.26946581E-07 -0.26602980E-07
 -0.26102014E-07 -0.25449177E-07 -0.24650798E-07 -0.23713994E-07 -0.22646612E-07
 -0.21457170E-07 -0.20154799E-07 -0.18749173E-07 -0.17250445E-07 -0.15669177E-07
 -0.14016270E-07 -0.12302896E-07 -0.10540418E-07 -0.87403291E-08 -0.69141708E-08
 -0.50734693E-08 -0.32296626E-08 -0.13940338E-08  0.42235539E-09  0.22087278E-08
  0.39546524E-08  0.56501014E-08  0.72855055E-08  0.88518048E-08  0.10340496E-07
  0.11743674E-07  0.13054074E-07  0.14265103E-07  0.15370870E-07  0.16366214E-07
  0.17246718E-07  0.18008733E-07  0.18649381E-07  0.19166566E-07  0.19558972E-07
  0.19826060E-07  0.19968063E-07  0.19985967E-07  0.19881498E-07  0.19657102E-07
  0.19315914E-07  0.18861733E-07  0.18298990E-07  0.17632709E-07  0.16868467E-07
  0.16012358E-07  0.15070940E-07  0.14051196E-07  0.12960482E-07  0.11806476E-07
  0.10597131E-07  0.93406175E-08  0.80452740E-08  0.67195540E-08  0.53719724E-08
  0.40110531E-08  0.26452776E-08  0.12830339E-08 -0.67432710E-10 -0.13980676E-08
 -0.27010528E-08 -0.39688509E-08 -0.51942468E-08 -0.63703865E-08 -0.74908136E-08
 -0.85495026E-08 -0.95408893E-08 -0.10459898E-07 -0.11301964E-07 -0.12063057E-07
 -0.12739694E-07 -0.13328956E-07 -0.13828494E-07 -0.14236539E-07 -0.14551902E-07
 -0.14773975E-07 -0.14902722E-07 -0.14938677E-07 -0.14882929E-07 -0.14737108E-07
 -0.14503369E-07 -0.14184370E-07 -0.13783248E-07 -0.13303598E-07 -0.12749437E-07
 -0.12125181E-07 -0.11435611E-07 -0.10685833E-07 -0.98812529E-08 -0.90275300E-08
 -0.81305447E-08 -0.71963582E-08 -0.62311732E-08 -0.52412946E-08 -0.42330898E-08
 -0.32129494E-08 -0.21872478E-08 -0.11623055E-08 -0.14435099E-09  0.86051560E-09
  0.18463574E-08  0.28074349E-08  0.37382374E-08  0.46335140E-08  0.54883013E-08
  0.62979495E-08  0.70581466E-08  0.77649397E-08  0.84147540E-08  0.90044093E-08
  0.95311339E-08  0.99925759E-08  0.10386812E-07  0.10712352E-07  0.10968143E-07
  0.11153572E-07  0.11268459E-07  0.11313055E-07  0.11288036E-07  0.11194489E-07
  0.11033904E-07  0.10808158E-07  0.10519498E-07  0.10170523E-07  0.97641630E-08
  0.93036569E-08  0.87925296E-08  0.82345661E-08  0.76337851E-08  0.69944119E-08
  0.63208497E-08  0.56176506E-08  0.48894863E-08  0.41411182E-08  0.33773671E-08
  0.26030834E-08  0.18231173E-08  0.10422896E-08  0.26536259E-09 -0.50298778E-09
 -0.12581992E-08 -0.19958490E-08 -0.27116794E-08 -0.34016207E-08 -0.40618137E-08
 -0.46886304E-08 -0.52786928E-08 -0.58288900E-08 -0.63363937E-08 -0.67986718E-08
 -0.72134994E-08 -0.75789687E-08 -0.78934962E-08 -0.81558283E-08 -0.83650442E-08
 -0.85205578E-08 -0.86221162E-08 -0.86697974E-08 -0.86640054E-08 -0.86054635E-08
 -0.84952061E-08 -0.83345678E-08 -0.81251721E-08 -0.78689177E-08 -0.75679630E-08
 -0.72247103E-08 -0.68417880E-08 -0.64220314E-08 -0.59684634E-08 -0.54842735E-08
 -0.49727962E-08 -0.44374896E-08 -0.38819122E-08 -0.33097002E-08 -0.27245451E-08
 -0.21301696E-08 -0.15303057E-08 -0.92867120E-09 -0.32894793E-09  0.26524051E-09
  0.85034972E-09  0.14229351E-08  0.19796713E-08  0.25173710E-08  0.30330024E-08
  0.35237057E-08  0.39868082E-08  0.44198382E-08  0.48205372E-08  0.51868714E-08
  0.55170408E-08  0.58094872E-08  0.60629009E-08  0.62762253E-08  0.64486604E-08
  0.65796639E-08  0.66689521E-08  0.67164976E-08  0.67225269E-08  0.66875156E-08
  0.66121824E-08  0.64974820E-08  0.63445962E-08  0.61549238E-08  0.59300699E-08
  0.56718334E-08  0.53821934E-08  0.50632956E-08  0.47174369E-08  0.43470498E-08
  0.39546858E-08  0.35429986E-08  0.31147269E-08  0.26726767E-08  0.22197033E-08
  0.17586938E-08  0.12925489E-08  0.82416512E-09  0.35641768E-09 -0.10785699E-09
 -0.56587781E-09 -0.10149353E-08 -0.14524070E-08 -0.18757725E-08 -0.22826272E-08
 -0.26706958E-08 -0.30378443E-08 -0.33820912E-08 -0.37016178E-08 -0.39947773E-08
 kinetic energy density (partial)
  0.10508984E+03  0.10505593E+03  0.10495428E+03  0.10478505E+03  0.10454857E+03
  0.10424525E+03  0.10387563E+03  0.10344038E+03  0.10294027E+03  0.10237619E+03
  0.10174915E+03  0.10106026E+03  0.10031072E+03  0.99501863E+02  0.98635092E+02
  0.97711918E+02  0.96733937E+02  0.95702832E+02  0.94620366E+02  0.93488377E+02
  0.92308776E+02  0.91083536E+02  0.89814693E+02  0.88504338E+02  0.87154609E+02
  0.85767691E+02  0.84345805E+02  0.82891206E+02  0.81406175E+02  0.79893015E+02
  0.78354043E+02  0.76791588E+02  0.75207984E+02  0.73605562E+02  0.71986648E+02
  0.70353555E+02  0.68708582E+02  0.67054005E+02  0.65392072E+02  0.63725002E+02
  0.62054978E+02  0.60384143E+02  0.58714595E+02  0.57048386E+02  0.55387514E+02
  0.53733925E+02  0.52089504E+02  0.50456078E+02  0.48835406E+02  0.47229185E+02
  0.45639040E+02  0.44066527E+02  0.42513129E+02  0.40980257E+02  0.39469243E+02
  0.37981348E+02  0.36517750E+02  0.35079555E+02  0.33667788E+02  0.32283397E+02
  0.30927252E+02  0.29600144E+02  0.28302790E+02  0.27035829E+02  0.25799823E+02
  0.24595262E+02  0.23422563E+02  0.22282069E+02  0.21174055E+02  0.20098727E+02
  0.19056223E+02  0.18046619E+02  0.17069925E+02  0.16126093E+02  0.15215016E+02
  0.14336530E+02  0.13490420E+02  0.12676417E+02  0.11894206E+02  0.11143423E+02
  0.10423663E+02  0.97344785E+01  0.90753851E+01  0.84458616E+01  0.78453542E+01
  0.72732783E+01  0.67290218E+01  0.62119470E+01  0.57213934E+01  0.52566801E+01
  0.48171085E+01  0.44019644E+01  0.40105204E+01  0.36420382E+01  0.32957708E+01
  0.29709647E+01  0.26668620E+01  0.23827020E+01  0.21177239E+01  0.18711678E+01
  0.16422769E+01  0.14302992E+01  0.12344887E+01  0.10541074E+01  0.88842630E+00
  0.73672697E+00  0.59830257E+00  0.47245913E+00  0.35851654E+00  0.25580951E+00
  0.16368850E+00  0.81520415E-01  0.86893982E-02 -0.55402593E-01 -0.11133523E+00
 -0.15966935E+00 -0.20094656E+00 -0.23568894E+00 -0.26439877E+00 -0.28755837E+00
 -0.30563000E+00 -0.31905579E+00 -0.32825778E+00 -0.33363795E+00 -0.33557840E+00
 -0.33444146E+00 -0.33056998E+00 -0.32428755E+00 -0.31589883E+00 -0.30568992E+00
 -0.29392868E+00 -0.28086524E+00 -0.26673238E+00 -0.25174602E+00 -0.23610573E+00
 -0.21999525E+00 -0.20358304E+00 -0.18702280E+00 -0.17045406E+00 -0.15400276E+00
 -0.13778185E+00 -0.12189184E+00 -0.10642144E+00 -0.91448126E-01 -0.77038769E-01
 -0.63250197E-01 -0.50129801E-01 -0.37716117E-01 -0.26039401E-01 -0.15122195E-01
 -0.49798849E-02  0.43787594E-02  0.12951049E-01  0.20739864E-01  0.27753145E-01
  0.34003419E-01  0.39507318E-01  0.44285141E-01  0.48360410E-01  0.51759464E-01
  0.54511060E-01  0.56645996E-01  0.58196757E-01  0.59197178E-01  0.59682125E-01
  0.59687196E-01  0.59248448E-01  0.58402130E-01  0.57184451E-01  0.55631356E-01
  0.53778321E-01  0.51660172E-01  0.49310917E-01  0.46763596E-01  0.44050149E-01
  0.41201299E-01  0.38246451E-01  0.35213605E-01  0.32129285E-01  0.29018479E-01
  0.25904596E-01  0.22809433E-01  0.19753149E-01  0.16754261E-01  0.13829640E-01
  0.10994521E-01  0.82625182E-02  0.56456572E-02  0.31544033E-02  0.79770374E-03
 -0.14169662E-02 -0.34835515E-02 -0.53973606E-02 -0.71550052E-02 -0.87543351E-02
 -0.10194372E-01 -0.11475239E-01 -0.12598088E-01 -0.13565031E-01 -0.14379059E-01
 -0.15043974E-01 -0.15564313E-01 -0.15945271E-01 -0.16192630E-01 -0.16312690E-01
 -0.16312191E-01 -0.16198252E-01 -0.15978297E-01 -0.15659997E-01 -0.15251202E-01
 -0.14759887E-01 -0.14194088E-01 -0.13561858E-01 -0.12871207E-01 -0.12130064E-01
 -0.11346223E-01 -0.10527310E-01 -0.96807427E-02 -0.88136977E-02 -0.79330779E-02
 -0.70454874E-02 -0.61572065E-02 -0.52741716E-02 -0.44019576E-02 -0.35457634E-02
 -0.27104010E-02 -0.19002871E-02 -0.11194371E-02 -0.37146271E-03  0.34042872E-03
  0.10134319E-02  0.16451394E-02  0.22335350E-02  0.27769856E-02  0.32742306E-02
  0.37243701E-02  0.41268516E-02  0.44814550E-02  0.47882767E-02  0.50477129E-02
  0.52604411E-02  0.54274018E-02  0.55497793E-02  0.56289818E-02  0.56666215E-02
  0.56644943E-02  0.56245593E-02  0.55489190E-02  0.54397989E-02  0.52995278E-02
  0.51305183E-02  0.49352479E-02  0.47162404E-02  0.44760485E-02  0.42172363E-02
  0.39423630E-02  0.36539678E-02  0.33545547E-02  0.30465793E-02  0.27324356E-02
  0.24144445E-02  0.20948426E-02  0.17757730E-02  0.14592761E-02  0.11472817E-02
  0.84160279E-03  0.54392951E-03  0.25582439E-03 -0.21281256E-04 -0.28609018E-03
 -0.53744106E-03 -0.77430944E-03 -0.99580787E-03 -0.12011852E-02 -0.13898249E-02
 -0.15612432E-02 -0.17150858E-02 -0.18511244E-02 -0.19692528E-02 -0.20694816E-02
 -0.21519338E-02 -0.22168384E-02 -0.22645249E-02 -0.22954166E-02 -0.23100242E-02
 -0.23089387E-02 -0.22928247E-02 -0.22624125E-02 -0.22184917E-02 -0.21619031E-02
 -0.20935320E-02 -0.20143003E-02 -0.19251599E-02 -0.18270851E-02 -0.17210662E-02
 -0.16081023E-02 -0.14891953E-02 -0.13653431E-02 -0.12375341E-02 -0.11067415E-02
 -0.97391775E-03 -0.83998959E-03 -0.70585362E-03 -0.57237186E-03 -0.44036793E-03
 -0.31062353E-03 -0.18387534E-03 -0.60812298E-04  0.57926723E-04  0.17175483E-03
  0.28013868E-03  0.38259959E-03  0.47871440E-03  0.56811581E-03  0.65049254E-03
  0.72558899E-03  0.79320472E-03  0.85319350E-03  0.90546216E-03  0.94996911E-03
  0.98672263E-03  0.10157790E-02  0.10372401E-02  0.10512516E-02  0.10579996E-02
  0.10577088E-02  0.10506392E-02  0.10370834E-02  0.10173635E-02  0.99182801E-03
  0.96084889E-03  0.92481834E-03  0.88414566E-03  0.83925413E-03  0.79057791E-03
  0.73855905E-03  0.68364442E-03  0.62628288E-03  0.56692244E-03  0.50600754E-03
  0.44397651E-03  0.38125909E-03  0.31827410E-03  0.25542731E-03  0.19310937E-03
  0.13169402E-03  0.71536368E-04  0.12971385E-04 -0.43687433E-04 -0.98149230E-04
 -0.15014678E-03 -0.19943729E-03 -0.24580304E-03 -0.28905188E-03 -0.32901746E-03
 -0.36555943E-03 -0.39856334E-03 -0.42794053E-03 -0.45362775E-03 -0.47558668E-03
 -0.49380337E-03 -0.50828745E-03 -0.51907131E-03 -0.52620916E-03 -0.52977593E-03
 -0.52986617E-03 -0.52659278E-03 -0.52008574E-03 -0.51049076E-03 -0.49796788E-03
 -0.48268998E-03 -0.46484139E-03 -0.44461629E-03 -0.42221731E-03 -0.39785396E-03
 -0.37174113E-03 -0.34409766E-03 -0.31514483E-03 -0.28510493E-03 -0.25419994E-03
 -0.22265011E-03 -0.19067271E-03 -0.15848082E-03 -0.12628213E-03 -0.94277865E-04
 -0.62661763E-04 -0.31619123E-04 -0.13259507E-05  0.28051831E-04  0.56359072E-04
  0.83452009E-04  0.10919878E-03  0.13347988E-03  0.15618847E-03  0.17723068E-03
  0.19652576E-03  0.21400616E-03  0.22961756E-03  0.24331881E-03  0.25508173E-03
  0.26489095E-03  0.27274356E-03  0.27864880E-03  0.28262762E-03  0.28471218E-03
  0.28494538E-03  0.28338021E-03  0.28007916E-03  0.27511358E-03  0.26856293E-03
  0.26051412E-03  0.25106071E-03  0.24030218E-03  0.22834313E-03  0.21529251E-03
  0.20126283E-03  0.18636934E-03  0.17072933E-03  0.15446125E-03  0.13768404E-03
  0.12051636E-03  0.10307589E-03  0.85478616E-04  0.67838210E-04  0.50265375E-04
  0.32867272E-04  0.15746965E-04 -0.99708769E-06 -0.17271505E-04 -0.32988406E-04
 -0.48065788E-04 -0.62427862E-04 -0.76005339E-04 -0.88735671E-04 -0.10056324E-03
 -0.11143951E-03 -0.12132312E-03 -0.13017993E-03 -0.13798305E-03 -0.14471279E-03
 -0.15035659E-03 -0.15490887E-03 -0.15837093E-03 -0.16075071E-03 -0.16206257E-03
 -0.16232704E-03 -0.16157051E-03 -0.15982495E-03 -0.15712751E-03 -0.15352020E-03
 -0.14904948E-03 -0.14376587E-03 -0.13772353E-03 -0.13097984E-03 -0.12359497E-03
 -0.11563140E-03 -0.10715356E-03 -0.98227292E-04 -0.88919494E-04 -0.79297635E-04
 -0.69429353E-04 -0.59382034E-04 -0.49222410E-04 -0.39016167E-04 -0.28827582E-04
 -0.18719162E-04 -0.87513101E-05  0.10179808E-05  0.10533424E-04  0.19742702E-04
  0.28596709E-04  0.37049768E-04  0.45059817E-04  0.52588576E-04  0.59601680E-04
  0.66068793E-04  0.71963683E-04  0.77264284E-04  0.81952721E-04  0.86015317E-04
  0.89442566E-04  0.92229087E-04  0.94373557E-04  0.95878616E-04  0.96750749E-04
  0.97000157E-04  0.96640598E-04  0.95689217E-04  0.94166361E-04  0.92095373E-04
  0.89502376E-04  0.86416051E-04  0.82867397E-04  0.78889485E-04  0.74517211E-04
  0.69787035E-04  0.64736725E-04  0.59405096E-04  0.53831748E-04  0.48056805E-04
  0.42120663E-04  0.36063736E-04  0.29926211E-04  0.23747809E-04  0.17567554E-04
  0.11423555E-04  0.53527978E-05 -0.60905799E-06 -0.64278589E-05 -0.12071131E-04
 -0.17508238E-04 -0.22710523E-04 -0.27651434E-04 -0.32306639E-04 -0.36654121E-04
 -0.40674254E-04 -0.44349871E-04 -0.47666306E-04 -0.50611432E-04 -0.53175666E-04
 -0.55351976E-04 -0.57135862E-04 -0.58525324E-04 -0.59520820E-04 -0.60125201E-04
 -0.60343645E-04 -0.60183567E-04 -0.59654528E-04 -0.58768124E-04 -0.57537871E-04
 -0.55979079E-04 -0.54108720E-04 -0.51945285E-04 -0.49508640E-04 -0.46819871E-04
 -0.43901134E-04 -0.40775492E-04 -0.37466755E-04 -0.33999324E-04 -0.30398021E-04
 -0.26687939E-04 -0.22894276E-04 -0.19042183E-04 -0.15156613E-04 -0.11262174E-04
 -0.73829846E-05 -0.35425422E-05  0.23640778E-06  0.39319931E-05  0.75233280E-05
  0.10990618E-04  0.14315258E-04  0.17479915E-04  0.20468611E-04  0.23266785E-04
  0.25861356E-04  0.28240764E-04  0.30395016E-04  0.32315701E-04  0.33996020E-04
  0.35430782E-04  0.36616406E-04  0.37550909E-04  0.38233880E-04  0.38666453E-04
  0.38851264E-04  0.38792408E-04  0.38495375E-04  0.37966996E-04  0.37215366E-04
  0.36249775E-04  0.35080620E-04  0.33719324E-04  0.32178241E-04  0.30470564E-04
  0.28610228E-04  0.26611809E-04  0.24490420E-04  0.22261613E-04  0.19941272E-04
  0.17545511E-04  0.15090571E-04  0.12592720E-04  0.10068154E-04  0.75328964E-05
  0.50027108E-05  0.24930056E-05  0.18750366E-07 -0.24056070E-05 -0.47662166E-05
 -0.70498987E-05 -0.92442096E-05 -0.11337503E-04 -0.13318982E-04 -0.15178752E-04
 -0.16907857E-04 -0.18498320E-04 -0.19943166E-04 -0.21236451E-04 -0.22373270E-04
 -0.23349773E-04 -0.24163163E-04 -0.24811690E-04 -0.25294647E-04 -0.25612349E-04
 -0.25766112E-04 -0.25758223E-04 -0.25591911E-04 -0.25271308E-04 -0.24801401E-04
 -0.24187992E-04 -0.23437642E-04 -0.22557619E-04 -0.21555838E-04 -0.20440801E-04
 -0.19221537E-04 -0.17907532E-04 -0.16508664E-04 -0.15035140E-04 -0.13497421E-04
 -0.11906157E-04 -0.10272122E-04 -0.86061390E-05 -0.69190196E-05 -0.52214959E-05
 -0.35241578E-05 -0.18373912E-05 -0.17131912E-06  0.14642545E-05  0.30598985E-05
  0.46066040E-05  0.60958315E-05  0.75195535E-05  0.88702933E-05  0.10141160E-04
  0.11325879E-04  0.12418820E-04  0.13415015E-04  0.14310180E-04  0.15100726E-04
  0.15783770E-04  0.16357135E-04  0.16819354E-04  0.17169664E-04  0.17407998E-04
  0.17534970E-04  0.17551863E-04  0.17460606E-04  0.17263750E-04  0.16964443E-04
  0.16566397E-04  0.16073859E-04  0.15491571E-04  0.14824737E-04  0.14078977E-04
  0.13260293E-04  0.12375017E-04  0.11429773E-04  0.10431430E-04  0.93870550E-05
  0.83038657E-05  0.71891864E-05  0.60504002E-05  0.48949036E-05  0.37300613E-05
  0.25631622E-05  0.14013766E-05  0.25171483E-06 -0.87901220E-06 -0.19842309E-05
 -0.30576404E-05 -0.40932460E-05 -0.50853900E-05 -0.60287798E-05 -0.69185136E-05
 -0.77501032E-05 -0.85194939E-05 -0.92230812E-05 -0.98577246E-05 -0.10420759E-04
 -0.10910001E-04 -0.11323756E-04 -0.11660818E-04 -0.11920468E-04 -0.12102472E-04
 -0.12207071E-04 -0.12234976E-04 -0.12187347E-04 -0.12065789E-04 -0.11872325E-04
 -0.11609382E-04 -0.11279767E-04 -0.10886645E-04 -0.10433511E-04 -0.99241677E-05
 -0.93626912E-05 -0.87534060E-05 -0.81008532E-05 -0.74097588E-05 -0.66850026E-05
 -0.59315854E-05 -0.51545971E-05 -0.43591841E-05 -0.35505171E-05 -0.27337596E-05
 -0.19140363E-05 -0.10964034E-05 -0.28581823E-06  0.51288822E-06  0.12950390E-05
  0.20561369E-05  0.27918883E-05  0.34982261E-05  0.41713305E-05  0.48076478E-05
  0.54039078E-05  0.59571385E-05  0.64646792E-05  0.69241917E-05  0.73336686E-05
  0.76914405E-05  0.79961800E-05  0.82469043E-05  0.84429755E-05  0.85840986E-05
  0.86703175E-05  0.87020095E-05  0.86798771E-05  0.86049388E-05  0.84785172E-05
  0.83022265E-05  0.80779578E-05  0.78078626E-05  0.74943364E-05  0.71399995E-05
  0.67476776E-05  0.63203815E-05  0.58612857E-05  0.53737066E-05  0.48610799E-05
  0.43269382E-05  0.37748876E-05  0.32085850E-05  0.26317151E-05  0.20479673E-05
  0.14610137E-05  0.87448678E-06  0.29195834E-06 -0.28308145E-06 -0.84724372E-06
 -0.13972599E-05 -0.19299994E-05 -0.24424868E-05 -0.29319170E-05 -0.33956695E-05
 -0.38313217E-05 -0.42366601E-05 -0.46096907E-05 -0.49486471E-05 -0.52519982E-05
 -0.55184534E-05 -0.57469667E-05 -0.59367392E-05 -0.60872201E-05 -0.61981061E-05
 -0.62693391E-05 -0.63011034E-05 -0.62938200E-05 -0.62481408E-05 -0.61649411E-05
 -0.60453104E-05 -0.58905428E-05 -0.57021262E-05 -0.54817295E-05 -0.52311905E-05
 -0.49525018E-05 -0.46477962E-05 -0.43193319E-05 -0.39694766E-05 -0.36006918E-05
 -0.32155162E-05 -0.28165491E-05 -0.24064339E-05 -0.19878413E-05 -0.15634527E-05
 -0.11359439E-05 -0.70796873E-06 -0.28214370E-06  0.13896771E-06  0.55286950E-06
  0.95714736E-06  0.13494820E-05  0.17276618E-05  0.20895946E-05  0.24333185E-05
  0.27570118E-05  0.30590020E-05  0.33377737E-05  0.35919751E-05  0.38204241E-05
  0.40221131E-05  0.41962116E-05  0.43420698E-05  0.44592187E-05  0.45473710E-05
  0.46064199E-05  0.46364370E-05  0.46376692E-05  0.46105347E-05  0.45556179E-05
  0.44736634E-05  0.43655690E-05  0.42323783E-05  0.40752719E-05  0.38955583E-05
  0.36946642E-05  0.34741240E-05  0.32355692E-05  0.29807167E-05  0.27113572E-05
  0.24293437E-05  0.21365788E-05  0.18350028E-05  0.15265814E-05  0.12132931E-05
  0.89711747E-06  0.58002279E-06  0.26395445E-06 -0.49176511E-07 -0.35750454E-06
 -0.65922017E-06 -0.95258018E-06 -0.12359172E-05 -0.15076488E-05 -0.17662857E-05
 -0.20104396E-05 -0.22388300E-05 -0.24502906E-05 -0.26437745E-05 -0.28183591E-05
 -0.29732496E-05 -0.31077825E-05 -0.32214269E-05 -0.33137868E-05 -0.33846009E-05
 -0.34337427E-05 -0.34612188E-05 -0.34671677E-05 -0.34518565E-05 -0.34156777E-05
 -0.33591453E-05 -0.32828893E-05 -0.31876509E-05 -0.30742762E-05 -0.29437097E-05
 -0.27969868E-05 -0.26352270E-05 -0.24596250E-05 -0.22714434E-05 -0.20720032E-05
 -0.18626757E-05 -0.16448731E-05 -0.14200392E-05 -0.11896410E-05 -0.95515849E-06
 -0.71807621E-06 -0.47987390E-06 -0.24201768E-06 -0.59513431E-08  0.22691210E-06
  0.45519855E-06  0.67758059E-06  0.89278489E-06  0.10995992E-05  0.12968789E-05
  0.14835528E-05  0.16586289E-05  0.18211992E-05  0.19704440E-05  0.21056357E-05
  0.22261419E-05  0.23314282E-05  0.24210597E-05  0.24947025E-05  0.25521245E-05
  0.25931950E-05  0.26178847E-05  0.26262639E-05  0.26185012E-05  0.25948608E-05
  0.25557000E-05  0.25014654E-05  0.24326893E-05  0.23499849E-05  0.22540421E-05
  0.21456217E-05  0.20255504E-05  0.18947144E-05  0.17540535E-05  0.16045547E-05
  0.14472455E-05  0.12831873E-05  0.11134681E-05  0.93919624E-06  0.76149272E-06
  0.58148469E-06  0.40029835E-06  0.21905222E-06  0.38850386E-07 -0.13922392E-06
 -0.31411465E-06 -0.48479897E-06 -0.65029305E-06 -0.80965744E-06 -0.96200226E-06
 -0.11064919E-05 -0.12423494E-05 -0.13688602E-05 -0.14853762E-05 -0.15913180E-05
 -0.16861782E-05 -0.17695234E-05 -0.18409954E-05 -0.19003131E-05 -0.19472727E-05
 -0.19817481E-05 -0.20036906E-05 -0.20131283E-05 -0.20101648E-05 -0.19949779E-05
 -0.19678169E-05 -0.19290010E-05 -0.18789160E-05 -0.18180110E-05 -0.17467952E-05
 -0.16658338E-05 -0.15757441E-05 -0.14771907E-05 -0.13708814E-05 -0.12575618E-05
 -0.11380107E-05 -0.10130348E-05 -0.88346351E-06 -0.75014359E-06 -0.61393383E-06
 -0.47569966E-06 -0.33630788E-06 -0.19662132E-06 -0.57493741E-07  0.80235299E-07
  0.21574530E-06  0.34823957E-06  0.47694976E-06  0.60114014E-06  0.72011167E-06
  0.83320576E-06  0.93980776E-06  0.10393501E-05  0.11313153E-05  0.12152381E-05
  0.12907081E-05  0.13573713E-05  0.14149314E-05  0.14631514E-05  0.15018536E-05
  0.15309205E-05  0.15502945E-05  0.15599775E-05  0.15600304E-05  0.15505717E-05
  0.15317761E-05  0.15038730E-05  0.14671441E-05  0.14219214E-05  0.13685843E-05
  0.13075568E-05  0.12393043E-05  0.11643306E-05  0.10831739E-05  0.99640350E-06
  0.90461574E-06  0.80843019E-06  0.70848555E-06  0.60543556E-06  0.49994487E-06
  0.39268484E-06  0.28432945E-06  0.17555113E-06  0.67016733E-07 -0.40616447E-07
 -0.14670453E-06 -0.25062082E-06 -0.35175933E-06 -0.44953830E-06 -0.54340333E-06
 -0.63283047E-06 -0.71732902E-06 -0.79644409E-06 -0.86975894E-06 -0.93689702E-06
 atomic pseudo charge-density
  0.60000000E+01  0.59876385E+01  0.59507352E+01  0.58898286E+01  0.58057971E+01
  0.56998309E+01  0.55733955E+01  0.54281887E+01  0.52660925E+01  0.50891230E+01
  0.48993802E+01  0.46990005E+01  0.44901118E+01  0.42747944E+01  0.40550472E+01
  0.38327599E+01  0.36096921E+01  0.33874572E+01  0.31675132E+01  0.29511571E+01
  0.27395246E+01  0.25335923E+01  0.23341841E+01  0.21419781E+01  0.19575165E+01
  0.17812152E+01  0.16133757E+01  0.14541952E+01  0.13037783E+01  0.11621476E+01
  0.10292537E+01  0.90498539E+00  0.78917859E+00  0.68162457E+00  0.58207778E+00
  0.49026282E+00  0.40588074E+00  0.32861465E+00  0.25813474E+00  0.19410273E+00
  0.13617569E+00  0.84009485E-01  0.37261608E-01 -0.44062848E-02 -0.41326298E-01
 -0.73822538E-01 -0.10220968E+00 -0.12679179E+00 -0.14786146E+00 -0.16569907E+00
 -0.18057232E+00 -0.19273593E+00 -0.20243142E+00 -0.20988713E+00 -0.21531824E+00
 -0.21892693E+00 -0.22090269E+00 -0.22142254E+00 -0.22065144E+00 -0.21874271E+00
 -0.21583842E+00 -0.21206989E+00 -0.20755814E+00 -0.20241441E+00 -0.19674063E+00
 -0.19062993E+00 -0.18416714E+00 -0.17742923E+00 -0.17048584E+00 -0.16339972E+00
 -0.15622718E+00 -0.14901851E+00 -0.14181842E+00 -0.13466644E+00 -0.12759728E+00
 -0.12064121E+00 -0.11382440E+00 -0.10716928E+00 -0.10069478E+00 -0.94416703E-01
 -0.88347948E-01 -0.82498790E-01 -0.76877122E-01 -0.71488678E-01 -0.66337251E-01
 -0.61424890E-01 -0.56752084E-01 -0.52317936E-01 -0.48120322E-01 -0.44156040E-01
 -0.40420945E-01 -0.36910078E-01 -0.33617779E-01 -0.30537796E-01 -0.27663386E-01
 -0.24987399E-01 -0.22502364E-01 -0.20200562E-01 -0.18074097E-01 -0.16114953E-01
 -0.14315051E-01 -0.12666302E-01 -0.11160646E-01 -0.97900960E-02 -0.85467726E-02
 -0.74229330E-02 -0.64110000E-02 -0.55035846E-02 -0.46935064E-02 -0.39738106E-02
 -0.33377824E-02 -0.27789582E-02 -0.22911350E-02 -0.18683774E-02 -0.15050224E-02
 -0.11956826E-02 -0.93524775E-03 -0.71888432E-03 -0.54203442E-03 -0.40041288E-03
 -0.29000356E-03 -0.20705450E-03 -0.14807232E-03 -0.10981575E-03 -0.89288577E-04
 -0.83731953E-04 -0.90616239E-04 -0.10763244E-03 -0.13268327E-03 -0.16387400E-03
 -0.19950305E-03 -0.23805249E-03 -0.27817835E-03 -0.31870106E-03 -0.35859569E-03
 -0.39698243E-03 -0.43311702E-03 -0.46638138E-03 -0.49627439E-03 -0.52240283E-03
 -0.54447254E-03 -0.56227985E-03 -0.57570326E-03 -0.58469532E-03 -0.58927498E-03
 -0.58952002E-03 -0.58556003E-03 -0.57756952E-03 -0.56576155E-03 -0.55038152E-03
 -0.53170150E-03 -0.51001473E-03 -0.48563062E-03 -0.45886999E-03 -0.43006076E-03
 -0.39953387E-03 -0.36761967E-03 -0.33464453E-03 -0.30092786E-03 -0.26677938E-03
 -0.23249681E-03 -0.19836370E-03 -0.16464773E-03 -0.13159915E-03 -0.99449546E-04
 -0.68410883E-04 -0.38674736E-04 -0.10411793E-04  0.16228443E-04  0.41117753E-04
  0.64149105E-04  0.85236386E-04  0.10431398E-03  0.12133620E-03  0.13627657E-03
  0.14912704E-03  0.15989702E-03  0.16861242E-03  0.17531452E-03  0.18005884E-03
  0.18291397E-03  0.18396027E-03  0.18328866E-03  0.18099931E-03  0.17720038E-03
  0.17200672E-03  0.16553861E-03  0.15792053E-03  0.14927991E-03  0.13974603E-03
  0.12944882E-03  0.11851784E-03  0.10708120E-03  0.95264675E-04  0.83190775E-04
  0.70977921E-04  0.58739710E-04  0.46584229E-04  0.34613465E-04  0.22922772E-04
  0.11600432E-04  0.72727877E-06 -0.96235935E-05 -0.19387052E-04 -0.28506072E-04
 -0.36931816E-04 -0.44623644E-04 -0.51549056E-04 -0.57683579E-04 -0.63010591E-04
 -0.67521095E-04 -0.71213441E-04 -0.74093000E-04 -0.76171806E-04 -0.77468151E-04
 -0.78006153E-04 -0.77815301E-04 -0.76929966E-04 -0.75388907E-04 -0.73234757E-04
 -0.70513497E-04 -0.67273937E-04 -0.63567183E-04 -0.59446119E-04 -0.54964889E-04
 -0.50178399E-04 -0.45141822E-04 -0.39910134E-04 -0.34537662E-04 -0.29077659E-04
 -0.23581905E-04 -0.18100336E-04 -0.12680701E-04 -0.73682564E-05 -0.22054847E-05
  0.27681471E-05  0.75163969E-05  0.12006423E-04  0.16208922E-04  0.20098240E-04
  0.23652439E-04  0.26853337E-04  0.29686517E-04  0.32141300E-04  0.34210692E-04
  0.35891300E-04  0.37183225E-04  0.38089927E-04  0.38618069E-04  0.38777339E-04
  0.38580256E-04  0.38041959E-04  0.37179980E-04  0.36014006E-04  0.34565634E-04
  0.32858120E-04  0.30916117E-04  0.28765415E-04  0.26432685E-04  0.23945214E-04
  0.21330655E-04  0.18616777E-04  0.15831224E-04  0.13001282E-04  0.10153659E-04
  0.73142815E-05  0.45080919E-05  0.17588755E-05 -0.91090590E-06 -0.34802603E-05
 -0.59297956E-05 -0.82418309E-05 -0.10400491E-04 -0.12391781E-04 -0.14203643E-04
 -0.15825998E-04 -0.17250762E-04 -0.18471853E-04 -0.19485175E-04 -0.20288589E-04
 -0.20881868E-04 -0.21266636E-04 -0.21446292E-04 -0.21425926E-04 -0.21212221E-04
 -0.20813339E-04 -0.20238809E-04 -0.19499400E-04 -0.18606983E-04 -0.17574403E-04
 -0.16415327E-04 -0.15144107E-04 -0.13775633E-04 -0.12325182E-04 -0.10808281E-04
 -0.92405583E-05 -0.76376085E-05 -0.60148560E-05 -0.43874265E-05 -0.27700251E-05
 -0.11768203E-05  0.37866278E-06  0.18836408E-05  0.33261618E-05  0.46951840E-05
  0.59806457E-05  0.71735234E-05  0.82658807E-05  0.92509048E-05  0.10122934E-04
  0.10877473E-04  0.11511198E-04  0.12021953E-04  0.12408734E-04  0.12671664E-04
  0.12811963E-04  0.12831902E-04  0.12734753E-04  0.12524737E-04  0.12206955E-04
  0.11787320E-04  0.11272484E-04  0.10669757E-04  0.99870245E-05  0.92326636E-05
  0.84154545E-05  0.75444929E-05  0.66291012E-05  0.56787400E-05  0.47029212E-05
  0.37111233E-05  0.27127080E-05  0.17168417E-05  0.73241966E-06 -0.23200536E-06
 -0.11682889E-05 -0.20687561E-05 -0.29262567E-05 -0.37342142E-05 -0.44866690E-05
 -0.51783146E-05 -0.58045273E-05 -0.63613893E-05 -0.68457047E-05 -0.72550093E-05
 -0.75875729E-05 -0.78423962E-05 -0.80192005E-05 -0.81184116E-05 -0.81411380E-05
 -0.80891438E-05 -0.79648161E-05 -0.77711284E-05 -0.75115989E-05 -0.71902460E-05
 -0.68115398E-05 -0.63803512E-05 -0.59018986E-05 -0.53816931E-05 -0.48254818E-05
 -0.42391915E-05 -0.36288711E-05 -0.30006352E-05 -0.23606079E-05 -0.17148682E-05
 -0.10693971E-05 -0.43002656E-06  0.19760850E-06  0.80811574E-06  0.13963875E-05
  0.19576394E-05  0.24874452E-05  0.29817678E-05  0.34369855E-05  0.38499149E-05
  0.42178286E-05  0.45384685E-05  0.48100555E-05  0.50312932E-05  0.52013688E-05
  0.53199490E-05  0.53871712E-05  0.54036318E-05  0.53703703E-05  0.52888491E-05
  0.51609313E-05  0.49888545E-05  0.47752023E-05  0.45228729E-05  0.42350466E-05
  0.39151506E-05  0.35668223E-05  0.31938728E-05  0.28002482E-05  0.23899915E-05
  0.19672041E-05  0.15360081E-05  0.11005081E-05  0.66475596E-06  0.23271456E-06
 -0.19177501E-06 -0.60502546E-06 -0.10035329E-05 -0.13840043E-05 -0.17433823E-05
 -0.20788673E-05 -0.23879373E-05 -0.26683641E-05 -0.29182273E-05 -0.31359244E-05
 -0.33201785E-05 -0.34700427E-05 -0.35849015E-05 -0.36644692E-05 -0.37087854E-05
 -0.37182074E-05 -0.36934006E-05 -0.36353256E-05 -0.35452235E-05 -0.34245987E-05
 -0.32751997E-05 -0.30989984E-05 -0.28981674E-05 -0.26750564E-05 -0.24321673E-05
 -0.21721285E-05 -0.18976684E-05 -0.16115892E-05 -0.13167395E-05 -0.10159882E-05
 -0.71219800E-06 -0.40819976E-06 -0.10676765E-06  0.18940470E-06  0.47772680E-06
  0.75573257E-06  0.10211000E-05  0.12716693E-05  0.15054588E-05  0.17206795E-05
  0.19157471E-05  0.20892924E-05  0.22401689E-05  0.23674592E-05  0.24704784E-05
  0.25487754E-05  0.26021328E-05  0.26305638E-05  0.26343078E-05  0.26138233E-05
  0.25697801E-05  0.25030482E-05  0.24146867E-05  0.23059304E-05  0.21781746E-05
  0.20329602E-05  0.18719562E-05  0.16969426E-05  0.15097916E-05  0.13124496E-05
  0.11069174E-05  0.89523151E-06  0.67944498E-06  0.46160831E-06  0.24375108E-06
  0.27863963E-07 -0.18411860E-06 -0.39033479E-06 -0.58901092E-06 -0.77847579E-06
 -0.95717391E-06 -0.11236774E-05 -0.12766964E-05 -0.14150883E-05 -0.15378653E-05
 -0.16442003E-05 -0.17334315E-05 -0.18050653E-05 -0.18587777E-05 -0.18944138E-05
 -0.19119862E-05 -0.19116720E-05 -0.18938077E-05 -0.18588836E-05 -0.18075361E-05
 -0.17405396E-05 -0.16587968E-05 -0.15633280E-05 -0.14552599E-05 -0.13358132E-05
 -0.12062900E-05 -0.10680605E-05 -0.92254904E-06 -0.77122042E-06 -0.61556585E-06
 -0.45708885E-06 -0.29729139E-06 -0.13766032E-06  0.20345949E-07  0.17531010E-06
  0.32586811E-06  0.47072068E-06  0.60864384E-06  0.73849880E-06  0.85924074E-06
  0.96992664E-06  0.10697220E-05  0.11579067E-05  0.12338792E-05  0.12971602E-05
  0.13473947E-05  0.13843530E-05  0.14079308E-05  0.14181477E-05  0.14151449E-05
  0.13991820E-05  0.13706323E-05  0.13299776E-05  0.12778018E-05  0.12147839E-05
  0.11416901E-05  0.10593655E-05  0.96872458E-06  0.87074235E-06  0.76644386E-06
  0.65689428E-06  0.54318842E-06  0.42644030E-06  0.30777264E-06  0.18830647E-06
  0.69151001E-07 -0.48606333E-07 -0.16390939E-06 -0.27574241E-06 -0.38313862E-06
 -0.48518815E-06 -0.58104546E-06 -0.66993585E-06 -0.75116145E-06 -0.82410620E-06
 -0.88824012E-06 -0.94312273E-06 -0.98840554E-06 -0.10238337E-05 -0.10492468E-05
 -0.10645786E-05 -0.10698564E-05 -0.10651988E-05 -0.10508135E-05 -0.10269939E-05
 -0.99411448E-06 -0.95262685E-06 -0.90305376E-06 -0.84598340E-06 -0.78206292E-06
 -0.71199157E-06 -0.63651344E-06 -0.55640995E-06 -0.47249211E-06 -0.38559264E-06
 -0.29655798E-06 -0.20624040E-06 -0.11549006E-06 -0.25147335E-07  0.63964748E-07
  0.15104771E-06  0.23533454E-06  0.31609619E-06  0.39264762E-06  0.46435333E-06
  0.53063243E-06  0.59096301E-06  0.64488603E-06  0.69200843E-06  0.73200576E-06
  0.76462400E-06  0.78968077E-06  0.80706589E-06  0.81674121E-06  0.81873984E-06
  0.81316471E-06  0.80018656E-06  0.78004127E-06  0.75302671E-06  0.71949904E-06
  0.67986853E-06  0.63459497E-06  0.58418270E-06  0.52917528E-06  0.47014993E-06
  0.40771173E-06  0.34248764E-06  0.27512042E-06  0.20626254E-06  0.13657000E-06
  0.66696360E-07 -0.27132793E-08 -0.71028004E-07 -0.13763666E-06 -0.20195312E-06
 -0.26342129E-06 -0.32151973E-06 -0.37576588E-06 -0.42571988E-06 -0.47098798E-06
 -0.51122540E-06 -0.54613878E-06 -0.57548803E-06 -0.59908776E-06 -0.61680817E-06
 -0.62857533E-06 -0.63437106E-06 -0.63423225E-06 -0.62824969E-06 -0.61656640E-06
 -0.59937559E-06 -0.57691810E-06 -0.54947947E-06 -0.51738670E-06 -0.48100459E-06
 -0.44073188E-06 -0.39699705E-06 -0.35025397E-06 -0.30097737E-06 -0.24965820E-06
 -0.19679884E-06 -0.14290838E-06 -0.88497830E-07 -0.34075434E-07  0.19857974E-07
  0.72813426E-07  0.12431814E-06  0.17391959E-06  0.22118940E-06  0.26572686E-06
  0.30716222E-06  0.34515964E-06  0.37941974E-06  0.40968184E-06  0.43572575E-06
  0.45737324E-06  0.47448904E-06  0.48698145E-06  0.49480258E-06  0.49794811E-06
  0.49645673E-06  0.49040917E-06  0.47992683E-06  0.46517008E-06  0.44633627E-06
  0.42365734E-06  0.39739722E-06  0.36784895E-06  0.33533159E-06  0.30018688E-06
  0.26277584E-06  0.22347514E-06  0.18267345E-06  0.14076768E-06  0.98159260E-07
  0.55250350E-07  0.12440179E-07 -0.29878593E-07 -0.71323379E-07 -0.11152503E-06
 -0.15013103E-06 -0.18680851E-06 -0.22124699E-06 -0.25316094E-06 -0.28229205E-06
 -0.30841121E-06 -0.33132018E-06 -0.35085301E-06 -0.36687710E-06 -0.37929394E-06
 -0.38803956E-06 -0.39308460E-06 -0.39443413E-06 -0.39212711E-06 -0.38623558E-06
 -0.37686350E-06 -0.36414540E-06 -0.34824468E-06 -0.32935174E-06 -0.30768186E-06
 -0.28347288E-06 -0.25698267E-06 -0.22848654E-06 -0.19827445E-06 -0.16664814E-06
 -0.13391823E-06 -0.10040119E-06 -0.66416433E-07 -0.32283269E-07  0.16819737E-08
  0.35168833E-07  0.67875476E-07  0.99511355E-07  0.12979972E-06  0.15847996E-06
  0.18530980E-06  0.21006726E-06  0.23255241E-06  0.25258892E-06  0.27002537E-06
  0.28473626E-06  0.29662287E-06  0.30561376E-06  0.31166508E-06  0.31476061E-06
  0.31491149E-06  0.31215583E-06  0.30655791E-06  0.29820732E-06  0.28721773E-06
  0.27372558E-06  0.25788849E-06  0.23988354E-06  0.21990538E-06  0.19816424E-06
  0.17488373E-06  0.15029868E-06  0.12465277E-06  0.98196223E-07  0.71183414E-07
  0.43870454E-07  0.16512839E-07 -0.10636897E-07 -0.37331460E-07 -0.63330996E-07
 -0.88405199E-07 -0.11233530E-06 -0.13491591E-06 -0.15595677E-06 -0.17528423E-06
 -0.19274272E-06 -0.20819586E-06 -0.22152748E-06 -0.23264248E-06 -0.24146733E-06
 -0.24795057E-06 -0.25206291E-06 -0.25379725E-06 -0.25316846E-06 -0.25021295E-06
 -0.24498804E-06 -0.23757120E-06 -0.22805904E-06 -0.21656622E-06 -0.20322409E-06
 -0.18817936E-06 -0.17159247E-06 -0.15363602E-06 -0.13449296E-06 -0.11435481E-06
 -0.93419786E-07 -0.71890888E-07 -0.49973987E-07 -0.27875885E-07 -0.58024075E-08
  0.16043472E-07  0.37463465E-07  0.58265723E-07  0.78266526E-07  0.97291856E-07
  0.11517888E-06  0.13177731E-06  0.14695060E-06  0.16057706E-06  0.17255075E-06
  0.18278227E-06  0.19119940E-06  0.19774748E-06  0.20238977E-06  0.20510750E-06
  0.20589983E-06  0.20478366E-06  0.20179321E-06  0.19697953E-06  0.19040978E-06
  0.18216644E-06  0.17234636E-06  0.16105966E-06  0.14842858E-06  0.13458621E-06
  0.11967510E-06  0.10384588E-06  0.87255720E-07  0.70066852E-07  0.52444992E-07
  0.34557780E-07  0.16573217E-07 -0.13418833E-08 -0.19023412E-07 -0.36311441E-07
 -0.53051637E-07 -0.69096612E-07 -0.84307192E-07 -0.98553593E-07 -0.11171650E-06
 -0.12368802E-06 -0.13437257E-06 -0.14368754E-06 -0.15156397E-06 -0.15794695E-06
 -0.16279599E-06 -0.16608519E-06 -0.16780332E-06 -0.16795374E-06 -0.16655418E-06
 -0.16363641E-06 -0.15924578E-06 -0.15344061E-06 -0.14629156E-06 -0.13788074E-06
 -0.12830091E-06 -0.11765442E-06 -0.10605221E-06 -0.93612641E-07 -0.80460370E-07
 -0.66725079E-07 -0.52540249E-07 -0.38041883E-07 -0.23367227E-07 -0.86534897E-08
  0.59634102E-08  0.20350082E-07  0.34376856E-07  0.47918929E-07  0.60857454E-07
  0.73080559E-07  0.84484290E-07  0.94973472E-07  0.10446248E-06  0.11287590E-06
  0.12014912E-06  0.12622878E-06  0.13107313E-06  0.13465226E-06  0.13694826E-06
  0.13795525E-06  0.13767923E-06  0.13613796E-06  0.13336061E-06  0.12938735E-06
  0.12426891E-06  0.11806591E-06  0.11084823E-06  0.10269427E-06  0.93690111E-07
  0.83928612E-07  0.73508519E-07  0.62533465E-07  0.51110966E-07  0.39351387E-07
  0.27366895E-07  0.15270408E-07  0.31745499E-08 -0.88093808E-08 -0.20572418E-07
 -0.32008901E-07 -0.43017404E-07 -0.53501624E-07 -0.63371198E-07 -0.72542466E-07
 -0.80939164E-07 -0.88493034E-07 -0.95144361E-07 -0.10084242E-06 -0.10554583E-06
 -0.10922284E-06 -0.11185150E-06 -0.11341976E-06 -0.11392543E-06 -0.11337614E-06
 -0.11178910E-06 -0.10919089E-06 -0.10561705E-06 -0.10111170E-06 -0.95726979E-07
 -0.89522545E-07 -0.82564882E-07 -0.74926634E-07 -0.66685869E-07 -0.57925292E-07
 -0.48731437E-07 -0.39193830E-07 -0.29404127E-07 -0.19455254E-07 -0.94405348E-08
  0.54716708E-09  0.10416298E-07  0.20077437E-07  0.29444096E-07  0.38433478E-07
  0.46967195E-07  0.54971937E-07  0.62380088E-07  0.69130283E-07  0.75167897E-07
  0.80445473E-07  0.84923074E-07  0.88568565E-07  0.91357820E-07  0.93274850E-07
  0.94311863E-07  0.94469236E-07  0.93755425E-07  0.92186792E-07  0.89787366E-07
  0.86588541E-07  0.82628696E-07  0.77952771E-07  0.72611780E-07  0.66662270E-07
  0.60165745E-07  0.53188044E-07  0.45798686E-07  0.38070195E-07  0.30077396E-07
  0.21896709E-07  0.13605423E-07  0.52809805E-08 -0.29997327E-08 -0.11161091E-07
 -0.19129405E-07 -0.26833580E-07 -0.34205734E-07 -0.41181791E-07 -0.47702020E-07
 -0.53711540E-07 -0.59160767E-07 -0.64005809E-07 -0.68208810E-07 -0.71738223E-07
 -0.74569038E-07 -0.76682933E-07 -0.78068370E-07 -0.78720626E-07 -0.78641760E-07
 -0.77840522E-07 -0.76332197E-07 -0.74138391E-07 -0.71286768E-07 -0.67810726E-07
 -0.63749028E-07 -0.59145390E-07 -0.54048021E-07 -0.48509137E-07 -0.42584437E-07
 -0.36332549E-07 -0.29814469E-07 -0.23092968E-07 -0.16232000E-07 -0.92961049E-08
 -0.23498061E-08  0.45429780E-08  0.11319515E-07  0.17918819E-07  0.24282195E-07
  0.30353746E-07  0.36080859E-07  0.41414654E-07  0.46310387E-07  0.50727815E-07
  0.54631524E-07  0.57991191E-07  0.60781814E-07  0.62983882E-07  0.64583496E-07
  0.65572430E-07  0.65948153E-07  0.65713787E-07  0.64878017E-07  0.63454953E-07
  0.61463942E-07  0.58929334E-07  0.55880204E-07  0.52350040E-07  0.48376380E-07
  0.44000433E-07  0.39266657E-07  0.34222318E-07  0.28917026E-07  0.23402259E-07
  0.17730866E-07  0.11956570E-07  0.61334679E-08  0.31552917E-09 -0.54438974E-08
 -0.11092566E-07 -0.16579799E-07 -0.21856939E-07 -0.26877768E-07 -0.31598909E-07
 -0.35980192E-07 -0.39984988E-07 -0.43580506E-07 -0.46738056E-07 -0.49433265E-07
   19.8421228800787      T
 Non local Part
           0           2   1.02776980335195     
   11.8805987233866        13.6046033764996        13.6046033764996     
   15.5797554505415     
 Reciprocal Space Part
  0.18367783E+03  0.18228668E+03  0.17813564E+03  0.17129158E+03  0.16186452E+03
  0.15000560E+03  0.13590421E+03  0.11978447E+03  0.10190101E+03  0.82534314E+02
  0.61985492E+02  0.40570800E+02  0.18615895E+02 -0.35500017E+01 -0.25599941E+02
 -0.47214949E+02 -0.68089498E+02 -0.87936618E+02 -0.10649258E+03 -0.12352103E+03
 -0.13881655E+03 -0.15220749E+03 -0.16355819E+03 -0.17277036E+03 -0.17978378E+03
 -0.18457620E+03 -0.18716257E+03 -0.18759355E+03 -0.18595334E+03 -0.18235697E+03
 -0.17694709E+03 -0.16989031E+03 -0.16137318E+03 -0.15159795E+03 -0.14077822E+03
 -0.12913442E+03 -0.11688949E+03 -0.10426454E+03 -0.91474835E+02 -0.78726008E+02
 -0.66210689E+02 -0.54105513E+02 -0.42568613E+02 -0.31737605E+02 -0.21728107E+02
 -0.12632770E+02 -0.45208534E+01  0.25616974E+01  0.85916878E+01  0.13567659E+02
  0.17508468E+02  0.20451519E+02  0.22450700E+02  0.23574083E+02  0.23901460E+02
  0.23521781E+02  0.22530545E+02  0.21027219E+02  0.19112746E+02  0.16887182E+02
  0.14447514E+02  0.11885711E+02  0.92870257E+01  0.67285753E+01  0.42782242E+01
  0.19937696E+01 -0.77567206E-01 -0.18993515E+01 -0.34458632E+01 -0.47017624E+01
 -0.56615196E+01 -0.63286411E+01 -0.67147235E+01 -0.68383740E+01 -0.67240353E+01
 -0.64007504E+01 -0.59009072E+01 -0.52589957E+01 -0.45104125E+01 -0.36903394E+01
 -0.28327229E+01 -0.19693752E+01 -0.11292117E+01 -0.33763724E+00  0.38391323E+00
  0.10182785E+01  0.15527215E+01  0.19789348E+01  0.22929107E+01  0.24946917E+01
  0.25880159E+01  0.25798781E+01  0.24800242E+01  0.23004013E+01  0.20545813E+01
  0.17571807E+01  0.14232924E+01  0.10679470E+01  0.70561940E+00  0.34979155E+00
 Real Space Part
 -0.98604459E+03 -0.98555920E+03 -0.98410352E+03 -0.98167896E+03 -0.97828793E+03
 -0.97393379E+03 -0.96862086E+03 -0.96235445E+03 -0.95514087E+03 -0.94698742E+03
 -0.93790244E+03 -0.92789529E+03 -0.91697640E+03 -0.90515727E+03 -0.89245053E+03
 -0.87886992E+03 -0.86443032E+03 -0.84914782E+03 -0.83303973E+03 -0.81612459E+03
 -0.79842223E+03 -0.77995381E+03 -0.76074182E+03 -0.74081017E+03 -0.72018419E+03
 -0.69889068E+03 -0.67695795E+03 -0.65441585E+03 -0.63129584E+03 -0.60763099E+03
 -0.58345604E+03 -0.55880743E+03 -0.53372333E+03 -0.50824368E+03 -0.48241020E+03
 -0.45626641E+03 -0.42985768E+03 -0.40323118E+03 -0.37643596E+03 -0.34952286E+03
 -0.32254454E+03 -0.29555546E+03 -0.26861179E+03 -0.24177140E+03 -0.21509377E+03
 -0.18863989E+03 -0.16247217E+03 -0.13665428E+03 -0.11125102E+03 -0.86328116E+02
 -0.61952034E+02 -0.38189728E+02 -0.15108373E+02  0.72249299E+01  0.28743489E+02
  0.49381387E+02  0.69073887E+02  0.87757861E+02  0.10537226E+03  0.12185864E+03
  0.13716164E+03  0.15122960E+03  0.16401512E+03  0.17547566E+03  0.18557419E+03
  0.19427977E+03  0.20156822E+03  0.20742271E+03  0.21183437E+03  0.21480285E+03
  0.21633686E+03  0.21645464E+03  0.21518435E+03  0.21256442E+03  0.20864376E+03
  0.20348190E+03  0.19714901E+03  0.18972576E+03  0.18130312E+03  0.17198193E+03
  0.16187236E+03  0.15109327E+03  0.13977136E+03  0.12804024E+03  0.11603928E+03
  0.10391251E+03  0.91807174E+02  0.79872498E+02  0.68258115E+02  0.57112642E+02
  0.46582157E+02  0.36808697E+02  0.27928811E+02  0.20072156E+02  0.13360139E+02
  0.79049148E+01  0.38081036E+01  0.11542301E+01  0.50105581E-01  0.00000000E+00
 Reciprocal Space Part
 -0.15516979E+03 -0.15396780E+03 -0.15038127E+03 -0.14446813E+03 -0.13632375E+03
 -0.12607910E+03 -0.11389829E+03 -0.99975533E+02 -0.84531479E+02 -0.67809138E+02
 -0.50069389E+02 -0.31586205E+02 -0.12641674E+02  0.64790645E+01  0.25492883E+02
  0.44123612E+02  0.62106778E+02  0.79194046E+02  0.95157269E+02  0.10979208E+03
  0.12292097E+03  0.13439574E+03  0.14409943E+03  0.15194750E+03  0.15788844E+03
  0.16190369E+03  0.16400692E+03  0.16424277E+03  0.16268495E+03  0.15943391E+03
  0.15461399E+03  0.14837027E+03  0.14086509E+03  0.13227436E+03  0.12278375E+03
  0.11258483E+03  0.10187123E+03  0.90834975E+02  0.79662911E+02  0.68533484E+02
  0.57613778E+02  0.47056936E+02  0.36999987E+02  0.27562104E+02  0.18843316E+02
  0.10923683E+02  0.38629249E+01 -0.22995008E+01 -0.75439032E+01 -0.11869471E+02
 -0.15293034E+02 -0.17847521E+02 -0.19580161E+02 -0.20550486E+02 -0.20828180E+02
 -0.20490857E+02 -0.19621786E+02 -0.18307654E+02 -0.16636395E+02 -0.14695135E+02
 -0.12568305E+02 -0.10335940E+02 -0.80722068E+01 -0.58441773E+01 -0.37108545E+01
 -0.17224699E+01  0.79956465E-01  0.16647959E+01  0.30097456E+01  0.41015353E+01
  0.49354291E+01  0.55145492E+01  0.58490524E+01  0.59551886E+01  0.58542777E+01
  0.55716347E+01  0.51354762E+01  0.45758400E+01  0.39235441E+01  0.32092123E+01
  0.24623862E+01  0.17107441E+01  0.97943840E+00  0.29056217E+00 -0.33724939E+00
 -0.88908229E+00 -0.13538739E+01 -0.17244167E+01 -0.19972445E+01 -0.21724146E+01
 -0.22531988E+01 -0.22457007E+01 -0.21584157E+01 -0.20017519E+01 -0.17875289E+01
 -0.15284724E+01 -0.12377198E+01 -0.92835237E+00 -0.61296509E+00 -0.30328701E+00
 Real Space Part
  0.86477843E+03  0.86435419E+03  0.86308189E+03  0.86096278E+03  0.85799896E+03
  0.85419334E+03  0.84954972E+03  0.84407274E+03  0.83776789E+03  0.83064157E+03
  0.82270104E+03  0.81395450E+03  0.80441105E+03  0.79408073E+03  0.78297458E+03
  0.77110458E+03  0.75848375E+03  0.74512613E+03  0.73104683E+03  0.71626204E+03
  0.70078909E+03  0.68464644E+03  0.66785373E+03  0.65043185E+03  0.63240289E+03
  0.61379025E+03  0.59461866E+03  0.57491417E+03  0.55470424E+03  0.53401774E+03
  0.51288499E+03  0.49133779E+03  0.46940947E+03  0.44713486E+03  0.42455039E+03
  0.40169405E+03  0.37860541E+03  0.35532565E+03  0.33189756E+03  0.30836551E+03
  0.28477546E+03  0.26117491E+03  0.23761290E+03  0.21413991E+03  0.19080785E+03
  0.16766992E+03  0.14478060E+03  0.12219543E+03  0.99970952E+02  0.78164533E+02
  0.56834165E+02  0.36038275E+02  0.15835484E+02 -0.37156467E+01 -0.22556912E+02
 -0.40630781E+02 -0.57880743E+02 -0.74251692E+02 -0.89690333E+02 -0.10414562E+03
 -0.11756922E+03 -0.12991601E+03 -0.14114457E+03 -0.15121771E+03 -0.16010305E+03
 -0.16777352E+03 -0.17420791E+03 -0.17939144E+03 -0.18331627E+03 -0.18598197E+03
 -0.18739599E+03 -0.18757412E+03 -0.18654077E+03 -0.18432931E+03 -0.18098222E+03
 -0.17655129E+03 -0.17109754E+03 -0.16469116E+03 -0.15741133E+03 -0.14934581E+03
 -0.14059053E+03 -0.13124898E+03 -0.12143150E+03 -0.11125445E+03 -0.10083924E+03
 -0.90311330E+02 -0.79799014E+02 -0.69432302E+02 -0.59341588E+02 -0.49656389E+02
 -0.40504018E+02 -0.32008287E+02 -0.24288233E+02 -0.17456900E+02 -0.11620158E+02
 -0.68758220E+01 -0.33125398E+01 -0.10040807E+01 -0.43583489E-01  0.00000000E+00
 Non local Part
           1           2   1.02776980335195     
   3.74036184108789        5.14825221701695        5.14825221701695     
   7.10188250728847     
 Reciprocal Space Part
  0.00000000E+00  0.47959264E+01  0.94787973E+01  0.13937909E+02  0.18067209E+02
  0.21767493E+02  0.24948455E+02  0.27530537E+02  0.29446547E+02  0.30643011E+02
  0.31081218E+02  0.30737954E+02  0.29605902E+02  0.27693699E+02  0.25025657E+02
  0.21641152E+02  0.17593707E+02  0.12949777E+02  0.77872811E+01  0.21939027E+01
 -0.37347864E+01 -0.98973503E+01 -0.16188605E+02 -0.22501782E+02 -0.28730692E+02
 -0.34771839E+02 -0.40526441E+02 -0.45902318E+02 -0.50815597E+02 -0.55192219E+02
 -0.58969196E+02 -0.62095618E+02 -0.64533382E+02 -0.66257625E+02 -0.67256885E+02
 -0.67532961E+02 -0.67100507E+02 -0.65986370E+02 -0.64228681E+02 -0.61875747E+02
 -0.58984758E+02 -0.55620351E+02 -0.51853065E+02 -0.47757725E+02 -0.43411792E+02
 -0.38893727E+02 -0.34281383E+02 -0.29650482E+02 -0.25073205E+02 -0.20616902E+02
 -0.16342975E+02 -0.12305935E+02 -0.85526466E+01 -0.51217825E+01 -0.20434739E+01
  0.66082777E+00  0.29782950E+01  0.49044792E+01  0.64428929E+01  0.76044369E+01
  0.84066933E+01  0.88731076E+01  0.90320849E+01  0.89160266E+01  0.85603325E+01
  0.80023954E+01  0.72806116E+01  0.64334317E+01  0.54984714E+01  0.45117002E+01
  0.35067261E+01  0.25141842E+01  0.15612421E+01  0.67122480E+00 -0.13663774E+00
 -0.84734199E+00 -0.14501253E+01 -0.19383709E+01 -0.23094127E+01 -0.25642521E+01
 -0.27071992E+01 -0.27454544E+01 -0.26886445E+01 -0.25483289E+01 -0.23374927E+01
 -0.20700399E+01 -0.17603015E+01 -0.14225710E+01 -0.10706787E+01 -0.71761309E+00
 -0.37519810E+00 -0.53830206E-01  0.23772056E+00  0.49244481E+00  0.70516389E+00
  0.87253852E+00  0.99302011E+00  0.10667505E+01  0.10954167E+01  0.10820686E+01
 Real Space Part
  0.00000000E+00 -0.14773620E+02 -0.29504012E+02 -0.44148064E+02 -0.58662887E+02
 -0.73005935E+02 -0.87135112E+02 -0.10100889E+03 -0.11458641E+03 -0.12782761E+03
 -0.14069331E+03 -0.15314536E+03 -0.16514671E+03 -0.17666152E+03 -0.18765531E+03
 -0.19809499E+03 -0.20794905E+03 -0.21718757E+03 -0.22578241E+03 -0.23370722E+03
 -0.24093761E+03 -0.24745120E+03 -0.25322772E+03 -0.25824911E+03 -0.26249959E+03
 -0.26596575E+03 -0.26863664E+03 -0.27050382E+03 -0.27156148E+03 -0.27180644E+03
 -0.27123829E+03 -0.26985939E+03 -0.26767496E+03 -0.26469312E+03 -0.26092494E+03
 -0.25638446E+03 -0.25108873E+03 -0.24505784E+03 -0.23831492E+03 -0.23088616E+03
 -0.22280077E+03 -0.21409102E+03 -0.20479213E+03 -0.19494231E+03 -0.18458264E+03
 -0.17375701E+03 -0.16251204E+03 -0.15089695E+03 -0.13896343E+03 -0.12676550E+03
 -0.11435932E+03 -0.10180298E+03 -0.89156272E+02 -0.76480457E+02 -0.63837951E+02
 -0.51292020E+02 -0.38906444E+02 -0.26745131E+02 -0.14871719E+02 -0.33491466E+01
  0.77608153E+01  0.18398045E+02  0.28504584E+02  0.38025162E+02  0.46907750E+02
  0.55104110E+02  0.62570366E+02  0.69267555E+02  0.75162185E+02  0.80226765E+02
  0.84440309E+02  0.87788809E+02  0.90265653E+02  0.91871984E+02  0.92616996E+02
  0.92518158E+02  0.91601327E+02  0.89900771E+02  0.87459124E+02  0.84327150E+02
  0.80563474E+02  0.76234154E+02  0.71412113E+02  0.66176534E+02  0.60612039E+02
  0.54807883E+02  0.48856943E+02  0.42854743E+02  0.36898318E+02  0.31085109E+02
  0.25511797E+02  0.20273132E+02  0.15460800E+02  0.11162301E+02  0.74598806E+01
  0.44296287E+01  0.21405098E+01  0.65103605E+00  0.24478301E-01  0.00000000E+00
 Reciprocal Space Part
  0.00000000E+00 -0.32959993E+01 -0.65108327E+01 -0.95650392E+01 -0.12382530E+02
 -0.14892180E+02 -0.17029313E+02 -0.18737042E+02 -0.19967441E+02 -0.20682518E+02
 -0.20854973E+02 -0.20468725E+02 -0.19519194E+02 -0.18013337E+02 -0.15969442E+02
 -0.13416673E+02 -0.10394401E+02 -0.69513115E+01 -0.31443350E+01  0.96259400E+00
  0.52999060E+01  0.97938701E+01  0.14368135E+02  0.18945301E+02  0.23448498E+02
  0.27802913E+02  0.31937265E+02  0.35785167E+02  0.39286363E+02  0.42387814E+02
  0.45044611E+02  0.47220688E+02  0.48889347E+02  0.50033563E+02  0.50646085E+02
  0.50729324E+02  0.50295045E+02  0.49363869E+02  0.47964603E+02  0.46133420E+02
  0.43912906E+02  0.41351006E+02  0.38499885E+02  0.35414752E+02  0.32152643E+02
  0.28771228E+02  0.25327640E+02  0.21877359E+02  0.18473184E+02  0.15164300E+02
  0.11995462E+02  0.90063155E+01  0.62308486E+01  0.36970026E+01  0.14264260E+01
 -0.56561927E+00 -0.22702077E+01 -0.36845619E+01 -0.48117386E+01 -0.56602014E+01
 -0.62432953E+01 -0.65786419E+01 -0.66874712E+01 -0.65939116E+01 -0.63242545E+01
 -0.59062152E+01 -0.53682061E+01 -0.47386395E+01 -0.40452758E+01 -0.33146305E+01
 -0.25714498E+01 -0.18382658E+01 -0.11350353E+01 -0.47886880E+00  0.11615214E+00
  0.63906713E+00  0.10820441E+01  0.14403059E+01  0.17119835E+01  0.18979047E+01
  0.20013281E+01  0.20276324E+01  0.19839743E+01  0.18789235E+01  0.17220886E+01
  0.15237444E+01  0.12944694E+01  0.10448044E+01  0.78493958E+00  0.52443680E+00
  0.27199295E+00  0.35247562E-01 -0.17936245E+00 -0.36670036E+00 -0.52298000E+00
 -0.64577090E+00 -0.73396136E+00 -0.78768363E+00 -0.80820610E+00 -0.79779839E+00
 Real Space Part
  0.00000000E+00  0.11109148E+02  0.22186010E+02  0.33198385E+02  0.44114240E+02
  0.54901797E+02  0.65529612E+02  0.75966664E+02  0.86182436E+02  0.96146995E+02
  0.10583108E+03  0.11520617E+03  0.12424460E+03  0.13291958E+03  0.14120534E+03
  0.14907715E+03  0.15651144E+03  0.16348586E+03  0.16997934E+03  0.17597218E+03
  0.18144613E+03  0.18638442E+03  0.19077187E+03  0.19459495E+03  0.19784180E+03
  0.20050236E+03  0.20256837E+03  0.20403347E+03  0.20489322E+03  0.20514518E+03
  0.20478894E+03  0.20382617E+03  0.20226066E+03  0.20009836E+03  0.19734742E+03
  0.19401819E+03  0.19012329E+03  0.18567756E+03  0.18069815E+03  0.17520444E+03
  0.16921810E+03  0.16276304E+03  0.15586542E+03  0.14855357E+03  0.14085798E+03
  0.13281125E+03  0.12444800E+03  0.11580478E+03  0.10691999E+03  0.97833780E+02
  0.88587875E+02  0.79225461E+02  0.69790995E+02  0.60330026E+02  0.50888978E+02
  0.41514918E+02  0.32255306E+02  0.23157711E+02  0.14269515E+02  0.56375941E+01
 -0.26920256E+01 -0.10674528E+02 -0.18266685E+02 -0.25427249E+02 -0.32117361E+02
 -0.38300959E+02 -0.43945199E+02 -0.49020872E+02 -0.53502807E+02 -0.57370273E+02
 -0.60607351E+02 -0.63203287E+02 -0.65152801E+02 -0.66456355E+02 -0.67120379E+02
 -0.67157432E+02 -0.66586292E+02 -0.65431977E+02 -0.63725709E+02 -0.61504748E+02
 -0.58812189E+02 -0.55696653E+02 -0.52211866E+02 -0.48416215E+02 -0.44372138E+02
 -0.40145538E+02 -0.35805024E+02 -0.31421203E+02 -0.27065831E+02 -0.22811001E+02
 -0.18728276E+02 -0.14887826E+02 -0.11357585E+02 -0.82024251E+01 -0.54833584E+01
 -0.32568727E+01 -0.15742093E+01 -0.47891348E+00 -0.17998452E-01  0.00000000E+00
 PAW radial sets
         375  0.969806103663617     
(5E20.12)                                
 augmentation charges (non sperical)
 -0.318674216239E+00 -0.366431816410E+00 -0.142540383087E+00 -0.194025298181E+00 -0.366431816410E+00
 -0.421360529380E+00 -0.163523735130E+00 -0.222613464736E+00 -0.142540383087E+00 -0.163523735130E+00
 -0.518289995658E-01 -0.693499238774E-01 -0.194025298181E+00 -0.222613464736E+00 -0.693499238774E-01
 -0.927982218667E-01
 uccopancies in atom
  0.200000000063E+01  0.000000000000E+00  0.000000000000E+00  0.000000000000E+00  0.000000000000E+00
  0.000000000000E+00  0.000000000000E+00  0.000000000000E+00  0.000000000000E+00  0.000000000000E+00
  0.133333333263E+01  0.000000000000E+00  0.000000000000E+00  0.000000000000E+00  0.000000000000E+00
  0.000000000000E+00
 grid
  0.369236193613E-04  0.381242833498E-04  0.393639899359E-04  0.406440086874E-04  0.419656504555E-04
  0.433302687169E-04  0.447392609597E-04  0.461940701153E-04  0.476961860354E-04  0.492471470178E-04
  0.508485413822E-04  0.525020090964E-04  0.542092434557E-04  0.559719928174E-04  0.577920623907E-04
  0.596713160861E-04  0.616116784235E-04  0.636151365035E-04  0.656837420423E-04  0.678196134726E-04
  0.700249381135E-04  0.723019744101E-04  0.746530542465E-04  0.770805853340E-04  0.795870536765E-04
  0.821750261167E-04  0.848471529644E-04  0.876061707110E-04  0.904549048319E-04  0.933962726796E-04
  0.964332864719E-04  0.995690563764E-04  0.102806793695E-03  0.106149814155E-03  0.109601541300E-03
  0.113165510000E-03  0.116845370072E-03  0.120644890013E-03  0.124567960864E-03  0.128618600193E-03
  0.132800956207E-03  0.137119312005E-03  0.141578089960E-03  0.146181856252E-03  0.150935325538E-03
  0.155843365787E-03  0.160911003260E-03  0.166143427663E-03  0.171545997453E-03  0.177124245335E-03
  0.182883883923E-03  0.188830811588E-03  0.194971118506E-03  0.201311092886E-03  0.207857227417E-03
  0.214616225912E-03  0.221595010177E-03  0.228800727096E-03  0.236240755953E-03  0.243922715988E-03
  0.251854474199E-03  0.260044153400E-03  0.268500140538E-03  0.277231095282E-03  0.286245958894E-03
  0.295553963381E-03  0.305164640953E-03  0.315087833784E-03  0.325333704091E-03  0.335912744540E-03
  0.346835788992E-03  0.358114023601E-03  0.369758998263E-03  0.381782638451E-03  0.394197257422E-03
  0.407015568831E-03  0.420250699750E-03  0.433916204109E-03  0.448026076578E-03  0.462594766900E-03
  0.477637194687E-03  0.493168764699E-03  0.509205382621E-03  0.525763471352E-03  0.542859987821E-03
  0.560512440355E-03  0.578738906608E-03  0.597558052073E-03  0.616989149202E-03  0.637052097134E-03
  0.657767442082E-03  0.679156398370E-03  0.701240870157E-03  0.724043473872E-03  0.747587561375E-03
  0.771897243868E-03  0.796997416591E-03  0.822913784313E-03  0.849672887660E-03  0.877302130292E-03
  0.905829806968E-03  0.935285132521E-03  0.965698271780E-03  0.997100370456E-03  0.102952358704E-02
  0.106300112575E-02  0.109756727049E-02  0.113325742003E-02  0.117010812420E-02  0.120815712134E-02
  0.124744337694E-02  0.128800712357E-02  0.132988990204E-02  0.137313460398E-02  0.141778551575E-02
  0.146388836378E-02  0.151149036142E-02  0.156064025727E-02  0.161138838511E-02  0.166378671547E-02
  0.171788890882E-02  0.177375037053E-02  0.183142830761E-02  0.189098178732E-02  0.195247179762E-02
  0.201596130966E-02  0.208151534224E-02  0.214920102842E-02  0.221908768426E-02  0.229124687981E-02
  0.236575251238E-02  0.244268088225E-02  0.252211077080E-02  0.260412352117E-02  0.268880312158E-02
  0.277623629135E-02  0.286651256969E-02  0.295972440738E-02  0.305596726150E-02  0.315533969313E-02
  0.325794346835E-02  0.336388366236E-02  0.347326876720E-02  0.358621080276E-02  0.370282543157E-02
  0.382323207718E-02  0.394755404653E-02  0.407591865618E-02  0.420845736271E-02  0.434530589733E-02
  0.448660440490E-02  0.463249758743E-02  0.478313485231E-02  0.493867046524E-02  0.509926370830E-02
  0.526507904298E-02  0.543628627870E-02  0.561306074660E-02  0.579558347921E-02  0.598404139574E-02
  0.617862749357E-02  0.637954104587E-02  0.658698780568E-02  0.680118021659E-02  0.702233763037E-02
  0.725068653152E-02  0.748646076927E-02  0.772990179705E-02  0.798125891975E-02  0.824078954901E-02
  0.850875946689E-02  0.878544309799E-02  0.907112379054E-02  0.936609410652E-02  0.967065612132E-02
  0.998512173305E-02  0.103098129820E-01  0.106450623803E-01  0.109912132527E-01  0.113486200880E-01
  0.117176489019E-01  0.120986776122E-01  0.124920964257E-01  0.128983082375E-01  0.133177290440E-01
  0.137507883689E-01  0.141979297026E-01  0.146596109570E-01  0.151363049341E-01  0.156284998101E-01
  0.161366996356E-01  0.166614248516E-01  0.172032128226E-01  0.177626183868E-01  0.183402144244E-01
  0.189365924443E-01  0.195523631895E-01  0.201881572633E-01  0.208446257742E-01  0.215224410034E-01
  0.222222970929E-01  0.229449107565E-01  0.236910220137E-01  0.244613949478E-01  0.252568184877E-01
  0.260781072169E-01  0.269261022067E-01  0.278016718780E-01  0.287057128908E-01  0.296391510620E-01
  0.306029423139E-01  0.315980736530E-01  0.326255641806E-01  0.336864661369E-01  0.347818659783E-01
  0.359128854897E-01  0.370806829342E-01  0.382864542382E-01  0.395314342170E-01  0.408168978389E-01
  0.421441615309E-01  0.435145845270E-01  0.449295702603E-01  0.463905677995E-01  0.478990733341E-01
  0.494566317053E-01  0.510648379892E-01  0.527253391294E-01  0.544398356243E-01  0.562100832680E-01
  0.580378949488E-01  0.599251425057E-01  0.618737586451E-01  0.638857389201E-01  0.659631437743E-01
  0.681081006519E-01  0.703228061762E-01  0.726095283991E-01  0.749706091240E-01  0.774084663040E-01
  0.799255965177E-01  0.825245775264E-01  0.852080709140E-01  0.879788248119E-01  0.908396767145E-01
  0.937935563840E-01  0.968434888513E-01  0.999925975138E-01  0.103244107334E+00  0.106601348142E+00
  0.110067758046E+00  0.113646886952E+00  0.117342400201E+00  0.121158082322E+00  0.125097840907E+00
  0.129165710612E+00  0.133365857292E+00  0.137702582264E+00  0.142180326714E+00  0.146803676242E+00
  0.151577365563E+00  0.156506283352E+00  0.161595477251E+00  0.166850159040E+00  0.172275709971E+00
  0.177877686284E+00  0.183661824892E+00  0.189634049257E+00  0.195800475460E+00  0.202167418459E+00
  0.208741398561E+00  0.215529148097E+00  0.222537618313E+00  0.229773986497E+00  0.237245663322E+00
  0.244960300438E+00  0.252925798307E+00  0.261150314295E+00  0.269642271026E+00  0.278410365004E+00
  0.287463575525E+00  0.296811173867E+00  0.306462732788E+00  0.316428136328E+00  0.326717589929E+00
  0.337341630893E+00  0.348311139165E+00  0.359637348481E+00  0.371331857868E+00  0.383406643526E+00
  0.395874071091E+00  0.408746908298E+00  0.422038338057E+00  0.435761971954E+00  0.449931864189E+00
  0.464562525969E+00  0.479668940372E+00  0.495266577685E+00  0.511371411253E+00  0.527999933831E+00
  0.545169174480E+00  0.562896716004E+00  0.581200712952E+00  0.600099910219E+00  0.619613662233E+00
  0.639761952782E+00  0.660565415476E+00  0.682045354878E+00  0.704223768324E+00  0.727123368446E+00
  0.750767606437E+00  0.775180696062E+00  0.800387638459E+00  0.826414247738E+00  0.853287177424E+00
  0.881033947742E+00  0.909682973812E+00  0.939263594739E+00  0.969806103664E+00  0.100134177878E+01
  0.103390291539E+01  0.106752285892E+01  0.110223603915E+01  0.113807800540E+01  0.117508546298E+01
  0.121329631076E+01  0.125274967998E+01  0.129348597434E+01  0.133554691138E+01  0.137897556515E+01
  0.142381641041E+01  0.147011536809E+01  0.151791985237E+01  0.156727881922E+01  0.161824281654E+01
  0.167086403591E+01  0.172519636606E+01  0.178129544805E+01  0.183921873223E+01  0.189902553711E+01
  0.196077711009E+01  0.202453669017E+01  0.209036957273E+01  0.215834317641E+01  0.222852711209E+01
  0.230099325428E+01  0.237581581464E+01  0.245307141799E+01  0.253283918084E+01  0.261520079234E+01
  0.270024059798E+01  0.278804568595E+01  0.287870597634E+01  0.297231431319E+01  0.306896655964E+01
  0.316876169602E+01  0.327180192129E+01  0.337819275762E+01  0.348804315854E+01  0.360146562045E+01
  0.371857629787E+01  0.383949512236E+01  0.396434592537E+01  0.409325656503E+01  0.422635905710E+01
  0.436378971016E+01  0.450568926521E+01  0.465220303980E+01  0.480348107682E+01  0.495967829822E+01
  0.512095466359E+01  0.528747533404E+01  0.545941084126E+01  0.563693726225E+01  0.582023639958E+01
 aepotential
  0.224582616114E+05  0.223544190646E+05  0.222109534541E+05  0.220288330229E+05  0.218094146781E+05
  0.215542019430E+05  0.212651470836E+05  0.209441434095E+05  0.205935030330E+05  0.202155686830E+05
  0.198127946722E+05  0.193878411044E+05  0.189432621271E+05  0.184817375804E+05  0.180059238210E+05
  0.175184529507E+05  0.170218449932E+05  0.165186113663E+05  0.160111158128E+05  0.155015938210E+05
  0.149921594028E+05  0.144848033554E+05  0.139813033483E+05  0.134833263185E+05  0.129923496540E+05
  0.125096891458E+05  0.120365046881E+05  0.115737891692E+05  0.111223877394E+05  0.106829992007E+05
  0.102561814750E+05  0.984236918122E+04  0.944187450461E+04  0.905490294140E+04  0.868156132149E+04
  0.832186852097E+04  0.797576539789E+04  0.764312443447E+04  0.732375897666E+04  0.701743192251E+04
  0.672386344142E+04  0.644273943381E+04  0.617371729275E+04  0.591643257351E+04  0.567050446145E+04
  0.543554074645E+04  0.521114237226E+04  0.499690623490E+04  0.479243119771E+04  0.459731580569E+04
  0.441116584915E+04  0.423359416998E+04  0.406422102063E+04  0.390267801687E+04  0.374860541199E+04
  0.360165791732E+04  0.346150037920E+04  0.332781051355E+04  0.320027922507E+04  0.307860921552E+04
  0.296251715286E+04  0.285173131282E+04  0.274599157757E+04  0.264505217145E+04  0.254867626965E+04
  0.245664112929E+04  0.236873130397E+04  0.228474714910E+04  0.220449274556E+04  0.212778613414E+04
  0.205445746675E+04  0.198433555515E+04  0.191726924706E+04  0.185310751161E+04  0.179171196744E+04
  0.173294637319E+04  0.167668743870E+04  0.162281213235E+04  0.157120921922E+04  0.152177000784E+04
  0.147439121513E+04  0.142897804432E+04  0.138543674456E+04  0.134368049331E+04  0.130362653916E+04
  0.126519642417E+04  0.122831510569E+04  0.119291245486E+04  0.115892042157E+04  0.112627573063E+04
  0.109491729446E+04  0.106478770604E+04  0.103583202109E+04  0.100799805089E+04  0.981236393900E+03
  0.955499708361E+03  0.930743379391E+03  0.906924483825E+03  0.884002460603E+03  0.861938666783E+03
  0.840696095606E+03  0.820239696410E+03  0.800536068637E+03  0.781552922370E+03  0.763260288480E+03
  0.745628812120E+03  0.728630843653E+03  0.712240005281E+03  0.696430795620E+03  0.681179309890E+03
  0.666462469975E+03  0.652258042018E+03  0.638545150035E+03  0.625303558355E+03  0.612513977096E+03
  0.600157983982E+03  0.588217866536E+03  0.576676751447E+03  0.565518401924E+03  0.554727254546E+03
  0.544288495101E+03  0.534187750938E+03  0.524411393213E+03  0.514946240367E+03  0.505779658568E+03
  0.496899536973E+03  0.488294233228E+03  0.479952546030E+03  0.471863716026E+03  0.464017378110E+03
  0.456403588141E+03  0.449012744120E+03  0.441835622538E+03  0.434863316131E+03  0.428087266090E+03
  0.421499198185E+03  0.415091142360E+03  0.408855407099E+03  0.402784560134E+03  0.396871438862E+03
  0.391109105954E+03  0.385490855254E+03  0.380010237724E+03  0.374660950796E+03  0.369436948380E+03
  0.364332342472E+03  0.359341472056E+03  0.354458779305E+03  0.349678944248E+03  0.344996782182E+03
  0.340407235135E+03  0.335905424277E+03  0.331486607996E+03  0.327146162810E+03  0.322879599404E+03
  0.318682561487E+03  0.314550795664E+03  0.310480173991E+03  0.306466669440E+03  0.302506361140E+03
  0.298595430347E+03  0.294730154072E+03  0.290906902291E+03  0.287122134879E+03  0.283372398553E+03
  0.279654326883E+03  0.275964632067E+03  0.272300107673E+03  0.268657624772E+03  0.265034129621E+03
  0.261426642495E+03  0.257832257890E+03  0.254248139858E+03  0.250671525339E+03  0.247099719855E+03
  0.243530098461E+03  0.239960107170E+03  0.236387257970E+03  0.232809136473E+03  0.229223394745E+03
  0.225627756442E+03  0.222020017216E+03  0.218398044562E+03  0.214759779768E+03  0.211103240179E+03
  0.207426519626E+03  0.203727792193E+03  0.200005313868E+03  0.196257424351E+03  0.192482552570E+03
  0.188679215786E+03  0.184846029355E+03  0.180981703072E+03  0.177085055860E+03  0.173155006834E+03
  0.169190595851E+03  0.165190975346E+03  0.161155428955E+03  0.157083368579E+03  0.152974348750E+03
  0.148828071265E+03  0.144644397185E+03  0.140423355348E+03  0.136165155596E+03  0.131870199141E+03
  0.127539095665E+03  0.123172677031E+03  0.118772014982E+03  0.114338441749E+03  0.109873569304E+03
  0.105379314949E+03  0.100857925142E+03  0.963120034373E+02  0.917445403931E+02  0.871589424277E+02
  0.825590642624E+02  0.779492376525E+02  0.733342989244E+02  0.687196113494E+02  0.641110783736E+02
  0.595151443148E+02  0.549387765535E+02  0.503894230776E+02  0.458749368207E+02  0.414034597111E+02
  0.369832569596E+02  0.326224958483E+02  0.283289648877E+02  0.241097365571E+02  0.199707893577E+02
  0.159166194813E+02  0.119499023744E+02  0.807129369114E+01  0.427950562784E+01  0.571831311462E+00
 -0.305468611876E+01 -0.660127275255E+01 -0.100645826083E+02 -0.134332264910E+02 -0.166842972594E+02
 -0.197809918165E+02 -0.226727239958E+02 -0.252989405321E+02 -0.275970053750E+02 -0.295131676630E+02
 -0.310143032654E+02 -0.320974363457E+02 -0.327942250862E+02 -0.331684612348E+02 -0.333063187673E+02
 -0.333014213572E+02 -0.332393191961E+02 -0.331864678945E+02 -0.331865985968E+02 -0.332636604584E+02
 -0.334280093386E+02 -0.336825851753E+02 -0.340272348436E+02 -0.344609435654E+02 -0.349825570793E+02
 -0.355907399910E+02 -0.362837258388E+02 -0.370591427385E+02 -0.379139910040E+02 -0.388447539766E+02
 -0.398475604606E+02 -0.409183642677E+02 -0.420530910988E+02 -0.432477367348E+02 -0.444984239967E+02
 -0.458014159526E+02 -0.471530921289E+02 -0.485499003435E+02 -0.499882801428E+02 -0.514645670080E+02
 -0.529748650751E+02 -0.545149070204E+02 -0.560798676397E+02 -0.576641662011E+02 -0.592612372839E+02
 -0.608632942800E+02 -0.624611173392E+02 -0.640439140374E+02 -0.655993263597E+02 -0.671136856798E+02
 -0.685726214375E+02 -0.699621271717E+02 -0.712701499084E+02 -0.724887089918E+02 -0.736164653102E+02
 -0.746615022762E+02 -0.756436320889E+02 -0.765943839749E+02 -0.775504776150E+02 -0.785341380356E+02
 -0.795167503408E+02 -0.803813762687E+02 -0.809309058204E+02 -0.809848485211E+02 -0.805190617613E+02
 -0.797071390466E+02 -0.787954527025E+02 -0.779444219109E+02 -0.771893397384E+02 -0.764977343901E+02
 -0.758270218216E+02 -0.751477317405E+02 -0.744449636076E+02 -0.737134003152E+02 -0.729524449789E+02
 -0.721630227330E+02 -0.713459458997E+02 -0.705013788410E+02 -0.696289047432E+02 -0.687278451668E+02
 -0.677975998939E+02 -0.668379042338E+02 -0.658489880783E+02 -0.648316404488E+02 -0.637872000016E+02
 -0.627175111457E+02 -0.616248536121E+02 -0.605118426399E+02 -0.593813475130E+02 -0.582363836067E+02
 -0.570800206782E+02 -0.559152807772E+02 -0.547450439947E+02 -0.535719579690E+02 -0.523983575470E+02
 -0.512262050831E+02 -0.500570571623E+02 -0.488920707462E+02 -0.477320515963E+02 -0.465775470395E+02
 -0.454289717238E+02 -0.442867565661E+02 -0.431514904256E+02 -0.420240432557E+02 -0.409056484073E+02
 -0.397979364418E+02 -0.387029182111E+02 -0.376229213286E+02 -0.365604879790E+02 -0.355182438545E+02
 -0.344987490102E+02 -0.335043424964E+02 -0.325369942471E+02 -0.315981792659E+02 -0.306887891857E+02
 -0.298090934988E+02 -0.289587564451E+02 -0.281369068425E+02 -0.273422493442E+02 -0.265731994166E+02
 -0.258280224530E+02 -0.251049599311E+02 -0.244023309660E+02 -0.237186039917E+02 -0.230524388733E+02
 -0.224027035576E+02 -0.217684712425E+02 -0.211490043405E+02 -0.205437308028E+02 -0.199522171818E+02
 -0.193741415380E+02 -0.188092681622E+02 -0.182574251896E+02 -0.177184855405E+02 -0.171923512016E+02
 -0.166789406120E+02 -0.161781787992E+02 -0.156899898630E+02 -0.152142914193E+02 -0.147509906477E+02
 core charge-density
  0.952520675380E-04  0.101495375248E-03  0.108147643672E-03  0.115235635011E-03  0.122787860180E-03
  0.130834692828E-03  0.139408490756E-03  0.148543725228E-03  0.158277118668E-03  0.168647791305E-03
  0.179697417332E-03  0.191470391185E-03  0.204014004613E-03  0.217378635221E-03  0.231617947218E-03
  0.246789105182E-03  0.262953001643E-03  0.280174499401E-03  0.298522689509E-03  0.318071165933E-03
  0.338898317948E-03  0.361087641421E-03  0.384728070181E-03  0.409914328749E-03  0.436747307821E-03
  0.465334463929E-03  0.495790244829E-03  0.528236542266E-03  0.562803173847E-03  0.599628395867E-03
  0.638859449077E-03  0.680653139449E-03  0.725176456192E-03  0.772607229346E-03  0.823134829469E-03
  0.876960912081E-03  0.934300209665E-03  0.995381374242E-03  0.106044787368E-02  0.112975894511E-02
  0.120359060908E-02  0.128223674811E-02  0.136601025386E-02  0.145524424705E-02  0.155029337467E-02
  0.165153518935E-02  0.175937161598E-02  0.187423051085E-02  0.199656731919E-02  0.212686683710E-02
  0.226564508427E-02  0.241345129428E-02  0.257087002977E-02  0.273852342997E-02  0.291707359869E-02
  0.310722514141E-02  0.330972786029E-02  0.352537961679E-02  0.375502937195E-02  0.399958041493E-02
  0.425999379115E-02  0.453729194181E-02  0.483256256745E-02  0.514696272878E-02  0.548172319859E-02
  0.583815307975E-02  0.621764470456E-02  0.662167883209E-02  0.705183016035E-02  0.750977317196E-02
  0.799728833200E-02  0.851626865797E-02  0.906872668391E-02  0.965680183935E-02  0.102827682678E-01
  0.109490431082E-01  0.116581952654E-01  0.124129546964E-01  0.132162222402E-01  0.140710800213E-01
  0.149808024560E-01  0.159488678961E-01  0.169789709402E-01  0.180750354507E-01  0.192412283102E-01
  0.204819739569E-01  0.218019697359E-01  0.232062021106E-01  0.246999637722E-01  0.262888716940E-01
  0.279788861739E-01  0.297763309116E-01  0.316879141687E-01  0.337207510600E-01  0.358823870270E-01
  0.381808225430E-01  0.406245391049E-01  0.432225265610E-01  0.459843118320E-01  0.489199890771E-01
  0.520402513593E-01  0.553564238661E-01  0.588804987372E-01  0.626251715536E-01  0.666038795407E-01
  0.708308415327E-01  0.753210997515E-01  0.800905634417E-01  0.851560544051E-01  0.905353544751E-01
  0.962472549616E-01  0.102311608095E+00  0.108749380494E+00  0.115582708662E+00  0.122834956528E+00
  0.130530775019E+00  0.138696163641E+00  0.147358534053E+00  0.156546775577E+00  0.166291322578E+00
  0.176624223648E+00  0.187579212471E+00  0.199191780264E+00  0.211499249621E+00  0.224540849595E+00
  0.238357791801E+00  0.252993347282E+00  0.268492923870E+00  0.284904143698E+00  0.302276920501E+00
  0.320663536266E+00  0.340118716775E+00  0.360699705487E+00  0.382466335164E+00  0.405481096573E+00
  0.429809203525E+00  0.455518653420E+00  0.482680282411E+00  0.511367814172E+00  0.541657901197E+00
  0.573630157426E+00  0.607367180921E+00  0.642954565167E+00  0.680480897469E+00  0.720037742832E+00
  0.761719611507E+00  0.805623908354E+00  0.851850861922E+00  0.900503431166E+00  0.951687187406E+00
  0.100551016915E+01  0.106208270719E+01  0.112151721727E+01  0.118392795748E+01  0.124943074745E+01
  0.131814264632E+01  0.139018158622E+01  0.146566595827E+01  0.154471414755E+01  0.162744401393E+01
  0.171397231546E+01  0.180441407091E+01  0.189888185837E+01  0.199748504693E+01  0.210032895837E+01
  0.220751395638E+01  0.231913446087E+01  0.243527788549E+01  0.255602349690E+01  0.268144119473E+01
  0.281159021223E+01  0.294651773785E+01  0.308625745949E+01  0.323082803354E+01  0.338023148264E+01
  0.353445152683E+01  0.369345185456E+01  0.385717434157E+01  0.402553722728E+01  0.419843326033E+01
  0.437572782714E+01  0.455725707922E+01  0.474282607765E+01  0.493220697550E+01  0.512513726156E+01
  0.532131809137E+01  0.552041273446E+01  0.572204516931E+01  0.592579886016E+01  0.613121575290E+01
  0.633779552915E+01  0.654499516059E+01  0.675222880701E+01  0.695886810403E+01  0.716424288631E+01
  0.736764239474E+01  0.756831701344E+01  0.776548058452E+01  0.795831334386E+01  0.814596552099E+01
  0.832756164038E+01  0.850220555740E+01  0.866898625485E+01  0.882698441871E+01  0.897527980116E+01
  0.911295936892E+01  0.923912622062E+01  0.935290924359E+01  0.945347346369E+01  0.954003102361E+01
  0.961185270735E+01  0.966827990635E+01  0.970873690302E+01  0.973274332501E+01  0.973992660083E+01
  0.973003422705E+01  0.970294563489E+01  0.965868342566E+01  0.959742372685E+01  0.951950540637E+01
  0.942543787207E+01  0.931590717778E+01  0.919178015689E+01  0.905410630983E+01  0.890411718547E+01
  0.874322301647E+01  0.857300639819E+01  0.839521283758E+01  0.821173804549E+01  0.802461190048E+01
  0.783597907478E+01  0.764807638424E+01  0.746320699841E+01  0.728371172852E+01  0.711193769069E+01
  0.695020472087E+01  0.680076999367E+01  0.666579136221E+01  0.654728997864E+01  0.644711281230E+01
  0.636689569456E+01  0.630802754951E+01  0.627161649666E+01  0.625845855211E+01  0.626900970839E+01
  0.630336223502E+01  0.636122608752E+01  0.644191632449E+01  0.654434738695E+01  0.666703493854E+01
  0.680810572282E+01  0.696531552377E+01  0.713607497487E+01  0.731748269541E+01  0.750636512035E+01
  0.769932239773E+01  0.789277970662E+01  0.808304330462E+01  0.826636046642E+01  0.843898231019E+01
  0.859722834552E+01  0.873755143959E+01  0.885660182630E+01  0.895128875366E+01  0.901883837902E+01
  0.905684659916E+01  0.906332557937E+01  0.903674288454E+01  0.897605226418E+01  0.888071531075E+01
  0.875071340594E+01  0.858654958006E+01  0.838924011528E+01  0.816029596237E+01  0.790169425223E+01
  0.761584042497E+01  0.730552169249E+01  0.697385279965E+01  0.662421518513E+01  0.626019087854E+01
  0.588549258925E+01  0.550389158683E+01  0.511914509225E+01  0.473492498174E+01  0.435474965403E+01
  0.398192094344E+01  0.361946791592E+01  0.327009925296E+01  0.293616573393E+01  0.261963396522E+01
  0.232207202659E+01  0.204464711022E+01  0.178813444967E+01  0.155293593541E+01  0.133910555972E+01
  0.114637765858E+01  0.974193841797E+00  0.821727647569E+00  0.687912724293E+00  0.571485217399E+00
  0.471045210894E+00  0.385126827011E+00  0.312258106794E+00  0.251000602521E+00  0.199972785647E+00
  0.157865759705E+00  0.123455930712E+00  0.956153487165E-01  0.733191047525E-01  0.556493202710E-01
  0.417957280579E-01  0.310531920936E-01  0.228166988917E-01  0.165744191197E-01  0.118994327240E-01
  0.844066552228E-02  0.591351866446E-02  0.409059454910E-02  0.279283981966E-02  0.188134271661E-02
  0.124994262604E-02  0.818737891334E-03  0.528516695678E-03  0.336086825445E-03  0.210443915841E-03
  0.129693847222E-03  0.786319464219E-04  0.468776827368E-04  0.274665137437E-04  0.158083277264E-04
  0.893263778204E-05  0.495271047820E-05  0.269293031332E-05  0.143505043571E-05  0.749033467398E-06
  0.382692875567E-06  0.191261832230E-06  0.934412899516E-07  0.445938772776E-07  0.207739784326E-07
  0.943935533048E-08  0.418023429782E-08  0.180276191690E-08  0.756458414024E-09  0.308570986603E-09
  0.122249546275E-09  0.469942030956E-10  0.175110668187E-10  0.631832866333E-11  0.220519387662E-11
  0.743641798892E-12  0.242021979575E-12  0.759286462879E-13  0.229343586167E-13  0.666119821145E-14
  0.185798406294E-14  0.497025389829E-15  0.127341159318E-15  0.312034280306E-16  0.730215436008E-17
  0.162955212106E-17  0.346248560048E-18  0.699396982111E-19  0.134081200548E-19  0.243551295308E-20
  0.418444894401E-21  0.678787865824E-22  0.103770854694E-22  0.149222291174E-23  0.201443561509E-24
  0.254771475340E-25  0.301240429432E-26  0.332275305256E-27  0.341139112902E-28  0.325242934553E-29
 kinetic energy-density
  0.170443712255E+02  0.171959526806E+02  0.173532146010E+02  0.175164534792E+02  0.176858577678E+02
  0.178616640769E+02  0.180441134562E+02  0.182334473720E+02  0.184299468889E+02  0.186338781649E+02
  0.188455518953E+02  0.190652737518E+02  0.192933760747E+02  0.195302069050E+02  0.197761422111E+02
  0.200315597611E+02  0.202968786716E+02  0.205725301864E+02  0.208589655714E+02  0.211566644077E+02
  0.214661397635E+02  0.217879146971E+02  0.221225547325E+02  0.224706481326E+02  0.228328139396E+02
  0.232097074934E+02  0.236020130549E+02  0.240104545801E+02  0.244357925504E+02  0.248788253848E+02
  0.253403961394E+02  0.258213903479E+02  0.263227394971E+02  0.268454253266E+02  0.273904802941E+02
  0.279589921474E+02  0.285521060971E+02  0.291710284698E+02  0.298170299540E+02  0.304914503708E+02
  0.311957003918E+02  0.319312677620E+02  0.326997212893E+02  0.335027156853E+02  0.343419955550E+02
  0.352194018501E+02  0.361368777335E+02  0.370964718568E+02  0.381003497377E+02  0.391507970514E+02
  0.402502256229E+02  0.414011830763E+02  0.426063635126E+02  0.438686095712E+02  0.451909277775E+02
  0.465764918310E+02  0.480286615703E+02  0.495509832775E+02  0.511472110604E+02  0.528213096739E+02
  0.545774749995E+02  0.564201457090E+02  0.583540116767E+02  0.603840394830E+02  0.625154788176E+02
  0.647538887983E+02  0.671051471637E+02  0.695754756398E+02  0.721714645888E+02  0.749000657176E+02
  0.777686752521E+02  0.807850809130E+02  0.839575608630E+02  0.872948468621E+02  0.908062141656E+02
  0.945014497876E+02  0.983909476526E+02  0.102485678586E+03  0.106797282660E+03  0.111338073263E+03
  0.116121082025E+03  0.121160114330E+03  0.126469785718E+03  0.132065563239E+03  0.137963824945E+03
  0.144181909152E+03  0.150738167156E+03  0.157652031354E+03  0.164944064906E+03  0.172636035247E+03
  0.180750980383E+03  0.189313282203E+03  0.198348744647E+03  0.207884665914E+03  0.217949936792E+03
  0.228575115933E+03  0.239792533996E+03  0.251636386576E+03  0.264142838225E+03  0.277350131708E+03
  0.291298704858E+03  0.306031300406E+03  0.321593109874E+03  0.338031873659E+03  0.355398057778E+03
  0.373744954155E+03  0.393128878129E+03  0.413609283072E+03  0.435248934242E+03  0.458114102325E+03
  0.482274711562E+03  0.507804535859E+03  0.534781391905E+03  0.563287328000E+03  0.593408855474E+03
  0.625237112630E+03  0.658868145433E+03  0.694403084744E+03  0.731948407206E+03  0.771616166926E+03
  0.813524241242E+03  0.857796588243E+03  0.904563501892E+03  0.953961873783E+03  0.100613546878E+04
  0.106123517735E+04  0.111941931289E+04  0.118085386672E+04  0.124571280382E+04  0.131417830816E+04
  0.138644108863E+04  0.146270062008E+04  0.154316542085E+04  0.162805329646E+04  0.171759159014E+04
  0.181201740873E+04  0.191157783219E+04  0.201653011567E+04  0.212714185202E+04  0.224369111662E+04
  0.236646658731E+04  0.249576760271E+04  0.263190422492E+04  0.277519719313E+04  0.292597790174E+04
  0.308458821620E+04  0.325138037232E+04  0.342671662644E+04  0.361096896398E+04  0.380451866417E+04
  0.400775577389E+04  0.422107842291E+04  0.444489215387E+04  0.467960898522E+04  0.492564641175E+04
  0.518342622670E+04  0.545337323689E+04  0.573591370794E+04  0.603147374661E+04  0.634047737217E+04
  0.666334448476E+04  0.700048851957E+04  0.735231396827E+04  0.771921356321E+04  0.810156527709E+04
  0.849972905431E+04  0.891404322157E+04  0.934482070386E+04  0.979234486794E+04  0.102568651646E+05
  0.107385924174E+05  0.112376938587E+05  0.117542878913E+05  0.122884385354E+05  0.128401496708E+05
  0.134093589906E+05  0.139959317389E+05  0.145996542709E+05  0.152202274331E+05  0.158572598208E+05
  0.165102609523E+05  0.171786344336E+05  0.178616711371E+05  0.185585425146E+05  0.192682940582E+05
  0.199898390634E+05  0.207219527413E+05  0.214632667968E+05  0.222122646003E+05  0.229672771086E+05
  0.237264794301E+05  0.244878886685E+05  0.252493625712E+05  0.260085996210E+05  0.267631404708E+05
  0.275103708900E+05  0.282475264679E+05  0.289716991590E+05  0.296798457821E+05  0.303687985746E+05
  0.310352781564E+05  0.316759085093E+05  0.322872347092E+05  0.328657427367E+05  0.334078820558E+05
  0.339100904126E+05  0.343688211714E+05  0.347805728479E+05  0.351419208425E+05  0.354495510972E+05
  0.357002954607E+05  0.358911684689E+05  0.360194050781E+05  0.360824991397E+05  0.360782418449E+05
  0.360047598798E+05  0.358605525534E+05  0.356445272346E+05  0.353560325877E+05  0.349948887026E+05
  0.345614135525E+05  0.340564449343E+05  0.334813572423E+05  0.328380723456E+05  0.321290638614E+05
  0.313573543707E+05  0.305265048800E+05  0.296405963503E+05  0.287042028884E+05  0.277223566150E+05
  0.267005043332E+05  0.256444563005E+05  0.245603277692E+05  0.234544740581E+05  0.223334203127E+05
  0.212037872847E+05  0.200722140363E+05  0.189452803624E+05  0.178294283772E+05  0.167308857541E+05
  0.156555906232E+05  0.146091186426E+05  0.135966126406E+05  0.126227157460E+05  0.116915098789E+05
  0.108064624639E+05  0.997038477567E+04  0.918540506283E+04  0.845295844878E+04  0.777379407981E+04
  0.714799827441E+04  0.657503110146E+04  0.605377307106E+04  0.558257886643E+04  0.515933572780E+04
  0.478152525676E+04  0.444628783179E+04  0.415048909912E+04  0.389078765046E+04  0.366370294860E+04
  0.346568214147E+04  0.329316448224E+04  0.314264209103E+04  0.301071575752E+04  0.289414485339E+04
  0.278989045550E+04  0.269515123228E+04  0.260739150870E+04  0.252436175628E+04  0.244411134917E+04
  0.236499409225E+04  0.228566700366E+04  0.220508291628E+04  0.212247776791E+04  0.203735317554E+04
  0.194945535435E+04  0.185875100882E+04  0.176540103825E+04  0.166973293329E+04  0.157221233292E+04
  0.147341452072E+04  0.137399629810E+04  0.127466873830E+04  0.117617103313E+04  0.107924586030E+04
  0.984616429631E+03  0.892965337536E+03  0.804915763764E+03  0.721015106799E+03  0.641721666013E+03
  0.567394877249E+03  0.498289667452E+03  0.434555676949E+03  0.376242313197E+03  0.323310859583E+03
  0.275653876646E+03  0.233118079615E+03  0.195520082618E+03  0.162642777810E+03  0.134214112759E+03
  0.109891499212E+03  0.892751302052E+02  0.719447435254E+02  0.574934391127E+02  0.455437468883E+02
  0.357506194080E+02  0.278002931909E+02  0.214092165769E+02  0.163235576148E+02  0.123187720143E+02
  0.919880949710E+01  0.679480658835E+01  0.496329694537E+01  0.358405468907E+01  0.255770897660E+01
  0.180325936930E+01  0.125560116891E+01  0.863146917673E+00  0.585608111307E+00  0.391980940279E+00
  0.258761855591E+00  0.168403121695E+00  0.108005615820E+00  0.682361669740E-01  0.424496586999E-01
  0.259918487821E-01  0.156569798204E-01  0.927434026716E-02  0.539945763282E-02  0.308807883728E-02
  0.173407457085E-02  0.955540668826E-03  0.516397674822E-03  0.273536695348E-03  0.141930759745E-03
  0.720927102518E-04  0.358240868513E-04  0.174033737863E-04  0.825965683653E-05  0.382689001530E-05
  0.172965411311E-05  0.762015003234E-06  0.326969470700E-06  0.136528874742E-06  0.554286629432E-07
  0.218594738965E-07  0.836616392117E-08  0.310429464282E-08  0.111557875823E-08  0.387856749165E-09
  0.130314216607E-09  0.422629560805E-10  0.132146940649E-10  0.397876928427E-11  0.115208381319E-11
  0.320402997379E-12  0.854680795393E-13  0.218377479543E-13  0.533695337420E-14  0.124574335822E-14
  0.277308611767E-15  0.587799035563E-16  0.118450370340E-16  0.226556481327E-17  0.410598812016E-18
  0.703891531288E-19  0.113936388465E-19  0.173813966835E-20  0.249426902751E-21  0.336033224746E-22
  0.424147930066E-23  0.500536300095E-24  0.551053487774E-25  0.564699854251E-26  0.537404178147E-27
 mkinetic energy-density pseudized
  0.151092076267E-05  0.161078113943E-05  0.171724152793E-05  0.183073813875E-05  0.195173601270E-05
  0.208073092622E-05  0.221825142283E-05  0.236486097874E-05  0.252116031164E-05  0.268778984213E-05
  0.286543231769E-05  0.305481561024E-05  0.325671569850E-05  0.347195984746E-05  0.370142999806E-05
  0.394606638079E-05  0.420687136823E-05  0.448491358218E-05  0.478133227218E-05  0.509734198350E-05
  0.543423753360E-05  0.579339931752E-05  0.617629896391E-05  0.658450536484E-05  0.701969110421E-05
  0.748363931098E-05  0.797825096534E-05  0.850555268776E-05  0.906770504292E-05  0.966701139231E-05
  0.103059273321E-04  0.109870707546E-04  0.117132325748E-04  0.124873881659E-04  0.133127095507E-04
  0.141925783982E-04  0.151305998802E-04  0.161306174426E-04  0.171967285538E-04  0.183333014935E-04
  0.195449932513E-04  0.208367686083E-04  0.222139204794E-04  0.236820916008E-04  0.252472976503E-04
  0.269159518960E-04  0.286948914737E-04  0.305914054015E-04  0.326132644455E-04  0.347687529600E-04
  0.370667028311E-04  0.395165296650E-04  0.421282713666E-04  0.449126292692E-04  0.478810119816E-04
  0.510455821336E-04  0.544193062108E-04  0.580160076832E-04  0.618504236451E-04  0.659382651984E-04
  0.702962818268E-04  0.749423300248E-04  0.798954464618E-04  0.851759259830E-04  0.908054047638E-04
  0.968069489619E-04  0.103205149227E-03  0.110026221457E-03  0.117298114214E-03  0.125050623242E-03
  0.133315513544E-03  0.142126649541E-03  0.151520133821E-03  0.161534455064E-03  0.172210645748E-03
  0.183592450263E-03  0.195726504155E-03  0.208662525198E-03  0.222453517112E-03  0.237155986727E-03
  0.252830175513E-03  0.269540306404E-03  0.287354846941E-03  0.306346789798E-03  0.326593951855E-03
  0.348179293032E-03  0.371191256199E-03  0.395724129543E-03  0.421878432894E-03  0.449761329568E-03
  0.479487065446E-03  0.511177437056E-03  0.544962290593E-03  0.580980053925E-03  0.619378303748E-03
  0.660314370228E-03  0.703955981600E-03  0.750481951368E-03  0.800082910912E-03  0.852962090519E-03
  0.909336152021E-03  0.969436076458E-03  0.103350811040E-02  0.110181477483E-02  0.117463594061E-02
  0.125226997516E-02  0.133503496476E-02  0.142327001774E-02  0.151733665369E-02  0.161762028454E-02
  0.172453179347E-02  0.183850921812E-02  0.196001954513E-02  0.208956062308E-02  0.222766320198E-02
  0.237489310745E-02  0.253185355852E-02  0.269918763859E-02  0.287758092970E-02  0.306776432068E-02
  0.327051700102E-02  0.348666965232E-02  0.371710785072E-02  0.396277569402E-02  0.422467966834E-02
  0.450389277033E-02  0.480155890149E-02  0.511889755282E-02  0.545720879887E-02  0.581787862153E-02
  0.620238458546E-02  0.661230188827E-02  0.704930981021E-02  0.751519858965E-02  0.801187675259E-02
  0.854137892599E-02  0.910587416682E-02  0.970767484104E-02  0.103492460884E-01  0.110332159121E-01
  0.117623859341E-01  0.125397428601E-01  0.133684707009E-01  0.142519638002E-01  0.151938407213E-01
  0.161979590501E-01  0.172684311735E-01  0.184096410992E-01  0.196262623831E-01  0.209232772388E-01
  0.223059969065E-01  0.237800833634E-01  0.253515724648E-01  0.270268986084E-01  0.288129210230E-01
  0.307169517871E-01  0.327467856921E-01  0.349107320689E-01  0.372176487084E-01  0.396769780116E-01
  0.422987855159E-01  0.450938009517E-01  0.480734619956E-01  0.512499608955E-01  0.546362941549E-01
  0.582463154747E-01  0.620947921661E-01  0.661974652578E-01  0.705711135393E-01  0.752336217936E-01
  0.802040534915E-01  0.855027282353E-01  0.911513042582E-01  0.971728663056E-01  0.103592019243E+00
  0.110434987761E+00  0.117729722561E+00  0.125506013448E+00  0.133795609754E+00  0.142632348575E+00
  0.152052291307E+00  0.162093869006E+00  0.172798037135E+00  0.184208440278E+00  0.196371587457E+00
  0.209337038700E+00  0.223157603569E+00  0.237889552387E+00  0.253592840932E+00  0.270331349449E+00
  0.288173136816E+00  0.307190710817E+00  0.327461315464E+00  0.349067236398E+00  0.372096125436E+00
  0.396641345387E+00  0.422802336324E+00  0.450685004534E+00  0.480402135457E+00  0.512073831944E+00
  0.545827979269E+00  0.581800738325E+00  0.620137068561E+00  0.660991282212E+00  0.704527631458E+00
  0.750920930193E+00  0.800357212108E+00  0.853034426859E+00  0.909163176109E+00  0.968967491229E+00
  0.103268565450E+01  0.110057106560E+01  0.117289315520E+01  0.124993834737E+01  0.133201107248E+01
  0.141943483225E+01  0.151255331828E+01  0.161173158546E+01  0.171735728129E+01  0.182984193193E+01
  0.194962228544E+01  0.207716171239E+01  0.221295166336E+01  0.235751318247E+01  0.251139847526E+01
  0.267519252851E+01  0.284951477877E+01  0.303502082496E+01  0.323240417956E+01  0.344239805107E+01
  0.366577714894E+01  0.390335950019E+01  0.415600826451E+01  0.442463353243E+01  0.471019408771E+01
  0.501369911228E+01  0.533620980785E+01  0.567884090412E+01  0.604276201879E+01  0.642919882885E+01
  0.683943400651E+01  0.727480786629E+01  0.773671866181E+01  0.822662246242E+01  0.874603252987E+01
  0.929651810479E+01  0.987970250082E+01  0.104972603913E+02  0.111509141591E+02  0.118424291652E+02
  0.125736077736E+02  0.133462819538E+02  0.141623042618E+02  0.150235369788E+02  0.159318391688E+02
  0.168890513897E+02  0.178969777730E+02  0.189573651621E+02  0.200718789787E+02  0.212420754629E+02
  0.224693699181E+02  0.237550005694E+02  0.250999876421E+02  0.265050872540E+02  0.279707397272E+02
  0.294970119375E+02  0.310835333538E+02  0.327294254670E+02  0.344332243859E+02  0.361927964756E+02
  0.380052470549E+02  0.398668223441E+02  0.417728050852E+02  0.437174045414E+02  0.456936419360E+02
  0.476932328193E+02  0.497064683708E+02  0.517220982558E+02  0.537272183735E+02  0.557071676674E+02
  0.576454391118E+02  0.595236110556E+02  0.613213062728E+02  0.630161873337E+02  0.645839982356E+02
  0.659986635731E+02  0.672324578186E+02  0.682562584289E+02  0.690398973667E+02  0.695526260611E+02
  0.697637086100E+02  0.696431568950E+02  0.691626188973E+02  0.682964274948E+02  0.670228109464E+02
  0.653252576160E+02  0.631940157564E+02  0.606276938089E+02  0.576349072264E+02  0.542358939356E+02
  0.504639921222E+02  0.463668413147E+02  0.420071316179E+02  0.374626880451E+02  0.328256399797E+02
  0.282003939966E+02  0.237001074955E+02  0.194413587689E+02  0.155367364525E+02  0.120851402731E+02
  0.915971010999E+01  0.679349730000E+01  0.496329694537E+01  0.358405468907E+01  0.255770897660E+01
  0.180325936930E+01  0.125560116891E+01  0.863146917673E+00  0.585608111307E+00  0.391980940279E+00
  0.258761855591E+00  0.168403121695E+00  0.108005615820E+00  0.682361669740E-01  0.424496586999E-01
  0.259918487821E-01  0.156569798204E-01  0.927434026716E-02  0.539945763282E-02  0.308807883728E-02
  0.173407457085E-02  0.955540668826E-03  0.516397674822E-03  0.273536695348E-03  0.141930759745E-03
  0.720927102518E-04  0.358240868513E-04  0.174033737863E-04  0.825965683653E-05  0.382689001530E-05
  0.172965411311E-05  0.762015003234E-06  0.326969470700E-06  0.136528874742E-06  0.554286629432E-07
  0.218594738965E-07  0.836616392117E-08  0.310429464282E-08  0.111557875823E-08  0.387856749165E-09
  0.130314216607E-09  0.422629560805E-10  0.132146940649E-10  0.397876928427E-11  0.115208381319E-11
  0.320402997379E-12  0.854680795393E-13  0.218377479543E-13  0.533695337420E-14  0.124574335822E-14
  0.277308611767E-15  0.587799035563E-16  0.118450370340E-16  0.226556481327E-17  0.410598812016E-18
  0.703891531288E-19  0.113936388465E-19  0.173813966835E-20  0.249426902751E-21  0.336033224746E-22
  0.424147930066E-23  0.500536300095E-24  0.551053487774E-25  0.564699854251E-26  0.537404178147E-27
 local pseudopotential core
 -0.211805222802E+03 -0.211806767269E+03 -0.211808263094E+03 -0.211809711809E+03 -0.211811114898E+03
 -0.211812473797E+03 -0.211813789899E+03 -0.211815064551E+03 -0.211816299058E+03 -0.211817494683E+03
 -0.211818652654E+03 -0.211819774154E+03 -0.211820860331E+03 -0.211821912300E+03 -0.211822931135E+03
 -0.211823917882E+03 -0.211824873550E+03 -0.211825799118E+03 -0.211826695533E+03 -0.211827563714E+03
 -0.211828404550E+03 -0.211829218901E+03 -0.211830007602E+03 -0.211830771459E+03 -0.211831511256E+03
 -0.211832227749E+03 -0.211832921673E+03 -0.211833593736E+03 -0.211834244629E+03 -0.211834875016E+03
 -0.211835485544E+03 -0.211836076837E+03 -0.211836649502E+03 -0.211837204122E+03 -0.211837741268E+03
 -0.211838261488E+03 -0.211838765315E+03 -0.211839253265E+03 -0.211839725836E+03 -0.211840183513E+03
 -0.211840626764E+03 -0.211841056042E+03 -0.211841471786E+03 -0.211841874422E+03 -0.211842264362E+03
 -0.211842642004E+03 -0.211843007735E+03 -0.211843361928E+03 -0.211843704946E+03 -0.211844037139E+03
 -0.211844358847E+03 -0.211844670397E+03 -0.211844972110E+03 -0.211845264291E+03 -0.211845547241E+03
 -0.211845821247E+03 -0.211846086590E+03 -0.211846343539E+03 -0.211846592356E+03 -0.211846833296E+03
 -0.211847066603E+03 -0.211847292515E+03 -0.211847511261E+03 -0.211847723064E+03 -0.211847928139E+03
 -0.211848126695E+03 -0.211848318931E+03 -0.211848505044E+03 -0.211848685221E+03 -0.211848859644E+03
 -0.211849028490E+03 -0.211849191928E+03 -0.211849350122E+03 -0.211849503232E+03 -0.211849651411E+03
 -0.211849794807E+03 -0.211849933562E+03 -0.211850067815E+03 -0.211850197699E+03 -0.211850323342E+03
 -0.211850444868E+03 -0.211850562395E+03 -0.211850676039E+03 -0.211850785910E+03 -0.211850892113E+03
 -0.211850994750E+03 -0.211851093920E+03 -0.211851189715E+03 -0.211851282226E+03 -0.211851371538E+03
 -0.211851457733E+03 -0.211851540890E+03 -0.211851621082E+03 -0.211851698379E+03 -0.211851772850E+03
 -0.211851844556E+03 -0.211851913557E+03 -0.211851979909E+03 -0.211852043664E+03 -0.211852104870E+03
 -0.211852163572E+03 -0.211852219810E+03 -0.211852273621E+03 -0.211852325038E+03 -0.211852374091E+03
 -0.211852420805E+03 -0.211852465201E+03 -0.211852507295E+03 -0.211852547102E+03 -0.211852584628E+03
 -0.211852619879E+03 -0.211852652853E+03 -0.211852683545E+03 -0.211852711946E+03 -0.211852738038E+03
 -0.211852761802E+03 -0.211852783212E+03 -0.211852802235E+03 -0.211852818833E+03 -0.211852832962E+03
 -0.211852844572E+03 -0.211852853604E+03 -0.211852859994E+03 -0.211852863668E+03 -0.211852864546E+03
 -0.211852862539E+03 -0.211852857550E+03 -0.211852849469E+03 -0.211852838182E+03 -0.211852823558E+03
 -0.211852805460E+03 -0.211852783737E+03 -0.211852758226E+03 -0.211852728750E+03 -0.211852695119E+03
 -0.211852657128E+03 -0.211852614556E+03 -0.211852567165E+03 -0.211852514700E+03 -0.211852456887E+03
 -0.211852393432E+03 -0.211852324018E+03 -0.211852248307E+03 -0.211852165937E+03 -0.211852076520E+03
 -0.211851979641E+03 -0.211851874854E+03 -0.211851761685E+03 -0.211851639624E+03 -0.211851508129E+03
 -0.211851366619E+03 -0.211851214473E+03 -0.211851051028E+03 -0.211850875577E+03 -0.211850687362E+03
 -0.211850485577E+03 -0.211850269360E+03 -0.211850037791E+03 -0.211849789887E+03 -0.211849524600E+03
 -0.211849240812E+03 -0.211848937330E+03 -0.211848612879E+03 -0.211848266101E+03 -0.211847895547E+03
 -0.211847499669E+03 -0.211847076819E+03 -0.211846625235E+03 -0.211846143041E+03 -0.211845628233E+03
 -0.211845078677E+03 -0.211844492094E+03 -0.211843866054E+03 -0.211843197964E+03 -0.211842485060E+03
 -0.211841724394E+03 -0.211840912820E+03 -0.211840046985E+03 -0.211839123311E+03 -0.211838137981E+03
 -0.211837086927E+03 -0.211835965806E+03 -0.211834769990E+03 -0.211833494538E+03 -0.211832134184E+03
 -0.211830683308E+03 -0.211829135917E+03 -0.211827485617E+03 -0.211825725588E+03 -0.211823848554E+03
 -0.211821846753E+03 -0.211819711905E+03 -0.211817435175E+03 -0.211815007138E+03 -0.211812417737E+03
 -0.211809656240E+03 -0.211806711199E+03 -0.211803570392E+03 -0.211800220781E+03 -0.211796648449E+03
 -0.211792838542E+03 -0.211788775207E+03 -0.211784441520E+03 -0.211779819415E+03 -0.211774889606E+03
 -0.211769631499E+03 -0.211764023107E+03 -0.211758040950E+03 -0.211751659954E+03 -0.211744853335E+03
 -0.211737592487E+03 -0.211729846851E+03 -0.211721583777E+03 -0.211712768382E+03 -0.211703363387E+03
 -0.211693328953E+03 -0.211682622500E+03 -0.211671198508E+03 -0.211659008316E+03 -0.211645999891E+03
 -0.211632117596E+03 -0.211617301926E+03 -0.211601489235E+03 -0.211584611440E+03 -0.211566595700E+03
 -0.211547364081E+03 -0.211526833183E+03 -0.211504913756E+03 -0.211481510271E+03 -0.211456520479E+03
 -0.211429834922E+03 -0.211401336422E+03 -0.211370899528E+03 -0.211338389926E+03 -0.211303663811E+03
 -0.211266567213E+03 -0.211226935286E+03 -0.211184591539E+03 -0.211139347030E+03 -0.211090999503E+03
 -0.211039332468E+03 -0.210984114236E+03 -0.210925096888E+03 -0.210862015185E+03 -0.210794585420E+03
 -0.210722504200E+03 -0.210645447165E+03 -0.210563067631E+03 -0.210474995164E+03 -0.210380834071E+03
 -0.210280161809E+03 -0.210172527302E+03 -0.210057449162E+03 -0.209934413794E+03 -0.209802873390E+03
 -0.209662243773E+03 -0.209511902094E+03 -0.209351184341E+03 -0.209179382648E+03 -0.208995742349E+03
 -0.208799458753E+03 -0.208589673592E+03 -0.208365471071E+03 -0.208125873468E+03 -0.207869836212E+03
 -0.207596242348E+03 -0.207303896298E+03 -0.206991516826E+03 -0.206657729075E+03 -0.206301055587E+03
 -0.205919906148E+03 -0.205512566352E+03 -0.205077184741E+03 -0.204611758395E+03 -0.204114116846E+03
 -0.203581904214E+03 -0.203012559473E+03 -0.202403294804E+03 -0.201751072002E+03 -0.201052577011E+03
 -0.200304192683E+03 -0.199501969981E+03 -0.198641597922E+03 -0.197718372717E+03 -0.196727166659E+03
 -0.195662397507E+03 -0.194517999254E+03 -0.193287395356E+03 -0.191963475720E+03 -0.190538578917E+03
 -0.189004481406E+03 -0.187352395807E+03 -0.185572980736E+03 -0.183656365274E+03 -0.181592191983E+03
 -0.179369683579E+03 -0.176977739969E+03 -0.174405074581E+03 -0.171640401693E+03 -0.168672689946E+03
 -0.165491501205E+03 -0.162087438284E+03 -0.158452729174E+03 -0.154581978596E+03 -0.150473118641E+03
 -0.146128587033E+03 -0.141556751636E+03 -0.136773579799E+03 -0.131804517148E+03 -0.126686488850E+03
 -0.121469865369E+03 -0.116220147717E+03 -0.111020063969E+03 -0.105987917025E+03 -0.101247258585E+03
 -0.969227910139E+02 -0.931403832798E+02 -0.900175651195E+02 -0.876442996445E+02 -0.858997342087E+02
 -0.835657792983E+02 -0.809337942412E+02 -0.783848586824E+02 -0.759162241417E+02 -0.735253512776E+02
 -0.712097830026E+02 -0.689671461544E+02 -0.667951404337E+02 -0.646915390090E+02 -0.626541885480E+02
 -0.606810001358E+02 -0.587699543057E+02 -0.569190931336E+02 -0.551265216374E+02 -0.533904052310E+02
 -0.517089619567E+02 -0.500804740076E+02 -0.485032723729E+02 -0.469757418730E+02 -0.454963182052E+02
 -0.440634863150E+02 -0.426757788664E+02 -0.413317746924E+02 -0.400300975015E+02 -0.387694142573E+02
 -0.375484339544E+02 -0.363659062385E+02 -0.352206201434E+02 -0.341114028846E+02 -0.330371185532E+02
 -0.319966670420E+02 -0.309889828723E+02 -0.300130341118E+02 -0.290678213234E+02 -0.281523765331E+02
 -0.272657622481E+02 -0.264070704958E+02 -0.255754218951E+02 -0.247699647587E+02 -0.239898742217E+02
 -0.232343513970E+02 -0.225026225585E+02 -0.217939383482E+02 -0.211075730090E+02 -0.204428236413E+02
 -0.197990094835E+02 -0.191754712136E+02 -0.185715702751E+02 -0.179866882218E+02 -0.174202260848E+02
 -0.168716037594E+02 -0.163402594099E+02 -0.158256488953E+02 -0.153272452111E+02 -0.148445379503E+02
 pspotential valence only
 -0.831461867349E+02 -0.831477312131E+02 -0.831492270497E+02 -0.831506757768E+02 -0.831520788788E+02
 -0.831534377925E+02 -0.831547539092E+02 -0.831560285768E+02 -0.831572631008E+02 -0.831584587449E+02
 -0.831596167348E+02 -0.831607382551E+02 -0.831618244549E+02 -0.831628764468E+02 -0.831638953077E+02
 -0.831648820809E+02 -0.831658377774E+02 -0.831667633757E+02 -0.831676598236E+02 -0.831685280393E+02
 -0.831693689118E+02 -0.831701833024E+02 -0.831709720446E+02 -0.831717359470E+02 -0.831724757912E+02
 -0.831731923350E+02 -0.831738863124E+02 -0.831745584340E+02 -0.831752093877E+02 -0.831758398409E+02
 -0.831764504386E+02 -0.831770418063E+02 -0.831776145498E+02 -0.831781692553E+02 -0.831787064912E+02
 -0.831792268075E+02 -0.831797307370E+02 -0.831802187959E+02 -0.831806914839E+02 -0.831811492851E+02
 -0.831815926682E+02 -0.831820220875E+02 -0.831824379826E+02 -0.831828407792E+02 -0.831832308902E+02
 -0.831836087148E+02 -0.831839746400E+02 -0.831843290406E+02 -0.831846722794E+02 -0.831850047081E+02
 -0.831853266667E+02 -0.831856384854E+02 -0.831859404832E+02 -0.831862329694E+02 -0.831865162436E+02
 -0.831867905958E+02 -0.831870563070E+02 -0.831873136492E+02 -0.831875628859E+02 -0.831878042725E+02
 -0.831880380559E+02 -0.831882644757E+02 -0.831884837636E+02 -0.831886961442E+02 -0.831889018349E+02
 -0.831891010464E+02 -0.831892939826E+02 -0.831894808411E+02 -0.831896618131E+02 -0.831898370840E+02
 -0.831900068331E+02 -0.831901712342E+02 -0.831903304557E+02 -0.831904846605E+02 -0.831906340065E+02
 -0.831907786465E+02 -0.831909187286E+02 -0.831910543960E+02 -0.831911857877E+02 -0.831913130382E+02
 -0.831914362776E+02 -0.831915556320E+02 -0.831916712236E+02 -0.831917831705E+02 -0.831918915872E+02
 -0.831919965847E+02 -0.831920982703E+02 -0.831921967479E+02 -0.831922921183E+02 -0.831923844788E+02
 -0.831924739240E+02 -0.831925605451E+02 -0.831926444305E+02 -0.831927256661E+02 -0.831928043346E+02
 -0.831928805164E+02 -0.831929542892E+02 -0.831930257281E+02 -0.831930949060E+02 -0.831931618934E+02
 -0.831932267585E+02 -0.831932895672E+02 -0.831933503835E+02 -0.831934092690E+02 -0.831934662837E+02
 -0.831935214854E+02 -0.831935749299E+02 -0.831936266715E+02 -0.831936767624E+02 -0.831937252532E+02
 -0.831937721927E+02 -0.831938176284E+02 -0.831938616058E+02 -0.831939041691E+02 -0.831939453608E+02
 -0.831939852221E+02 -0.831940237928E+02 -0.831940611110E+02 -0.831940972138E+02 -0.831941321368E+02
 -0.831941659143E+02 -0.831941985794E+02 -0.831942301638E+02 -0.831942606982E+02 -0.831942902119E+02
 -0.831943187332E+02 -0.831943462892E+02 -0.831943729058E+02 -0.831943986079E+02 -0.831944234192E+02
 -0.831944473623E+02 -0.831944704589E+02 -0.831944927295E+02 -0.831945141935E+02 -0.831945348693E+02
 -0.831945547744E+02 -0.831945739250E+02 -0.831945923364E+02 -0.831946100228E+02 -0.831946269975E+02
 -0.831946432725E+02 -0.831946588588E+02 -0.831946737665E+02 -0.831946880043E+02 -0.831947015800E+02
 -0.831947145001E+02 -0.831947267702E+02 -0.831947383943E+02 -0.831947493756E+02 -0.831947597156E+02
 -0.831947694148E+02 -0.831947784722E+02 -0.831947868854E+02 -0.831947946507E+02 -0.831948017627E+02
 -0.831948082143E+02 -0.831948139970E+02 -0.831948191004E+02 -0.831948235122E+02 -0.831948272183E+02
 -0.831948302025E+02 -0.831948324464E+02 -0.831948339293E+02 -0.831948346281E+02 -0.831948345171E+02
 -0.831948335679E+02 -0.831948317493E+02 -0.831948290266E+02 -0.831948253622E+02 -0.831948207147E+02
 -0.831948150389E+02 -0.831948082856E+02 -0.831948004011E+02 -0.831947913272E+02 -0.831947810003E+02
 -0.831947693517E+02 -0.831947563065E+02 -0.831947417836E+02 -0.831947256950E+02 -0.831947079453E+02
 -0.831946884309E+02 -0.831946670396E+02 -0.831946436498E+02 -0.831946181293E+02 -0.831945903351E+02
 -0.831945601116E+02 -0.831945272902E+02 -0.831944916876E+02 -0.831944531050E+02 -0.831944113258E+02
 -0.831943661148E+02 -0.831943172161E+02 -0.831942643508E+02 -0.831942072153E+02 -0.831941454784E+02
 -0.831940787789E+02 -0.831940067226E+02 -0.831939288785E+02 -0.831938447758E+02 -0.831937538990E+02
 -0.831936556839E+02 -0.831935495124E+02 -0.831934347064E+02 -0.831933105220E+02 -0.831931761424E+02
 -0.831930306698E+02 -0.831928731169E+02 -0.831927023975E+02 -0.831925173153E+02 -0.831923165522E+02
 -0.831920986552E+02 -0.831918620213E+02 -0.831916048814E+02 -0.831913252821E+02 -0.831910210656E+02
 -0.831906898472E+02 -0.831903289908E+02 -0.831899355813E+02 -0.831895063949E+02 -0.831890378652E+02
 -0.831885260468E+02 -0.831879665749E+02 -0.831873546205E+02 -0.831866848424E+02 -0.831859513334E+02
 -0.831851475622E+02 -0.831842663102E+02 -0.831832996027E+02 -0.831822386342E+02 -0.831810736881E+02
 -0.831797940500E+02 -0.831783879156E+02 -0.831768422910E+02 -0.831751428886E+02 -0.831732740161E+02
 -0.831712184602E+02 -0.831689573662E+02 -0.831664701128E+02 -0.831637341840E+02 -0.831607250399E+02
 -0.831574159870E+02 -0.831537780503E+02 -0.831497798496E+02 -0.831453874830E+02 -0.831405644194E+02
 -0.831352714042E+02 -0.831294663819E+02 -0.831231044385E+02 -0.831161377678E+02 -0.831085156666E+02
 -0.831001845606E+02 -0.830910880651E+02 -0.830811670844E+02 -0.830703599482E+02 -0.830586025888E+02
 -0.830458287556E+02 -0.830319702620E+02 -0.830169572612E+02 -0.830007185382E+02 -0.829831818042E+02
 -0.829642739773E+02 -0.829439214235E+02 -0.829220501305E+02 -0.828985857792E+02 -0.828734536712E+02
 -0.828465784657E+02 -0.828178836714E+02 -0.827872908333E+02 -0.827547183493E+02 -0.827200798471E+02
 -0.826832820494E+02 -0.826442220527E+02 -0.826027839506E+02 -0.825588347346E+02 -0.825122194180E+02
 -0.824627553428E+02 -0.824102256515E+02 -0.823543719371E+02 -0.822948861199E+02 -0.822314016487E+02
 -0.821634841802E+02 -0.820906219530E+02 -0.820122161455E+02 -0.819275715770E+02 -0.818358881858E+02
 -0.817362537725E+02 -0.816276385400E+02 -0.815088919666E+02 -0.813787425141E+02 -0.812358005796E+02
 -0.810785649491E+02 -0.809054327943E+02 -0.807147129840E+02 -0.805046421789E+02 -0.802734028736E+02
 -0.800191422883E+02 -0.797399908451E+02 -0.794340789385E+02 -0.790995508683E+02 -0.787345751527E+02
 -0.783373509863E+02 -0.779061112963E+02 -0.774391236218E+02 -0.769346908236E+02 -0.763911543522E+02
 -0.758069034297E+02 -0.751803940741E+02 -0.745101825399E+02 -0.737949787617E+02 -0.730337272893E+02
 -0.722257268453E+02 -0.713708069834E+02 -0.704706218677E+02 -0.695473631841E+02 -0.686154753117E+02
 -0.676817318390E+02 -0.667518183555E+02 -0.658296695482E+02 -0.649087190963E+02 -0.637995495580E+02
 -0.627176350549E+02 -0.616248536121E+02 -0.605118426399E+02 -0.593813475130E+02 -0.582363836067E+02
 -0.570800206782E+02 -0.559152807772E+02 -0.547450439947E+02 -0.535719579690E+02 -0.523983575470E+02
 -0.512262050831E+02 -0.500570571623E+02 -0.488920707462E+02 -0.477320515963E+02 -0.465775470395E+02
 -0.454289717238E+02 -0.442867565661E+02 -0.431514904256E+02 -0.420240432557E+02 -0.409056484073E+02
 -0.397979364418E+02 -0.387029182111E+02 -0.376229213286E+02 -0.365604879790E+02 -0.355182438545E+02
 -0.344987490102E+02 -0.335043424964E+02 -0.325369942471E+02 -0.315981792659E+02 -0.306887891857E+02
 -0.298090934988E+02 -0.289587564451E+02 -0.281369068425E+02 -0.273422493442E+02 -0.265731994166E+02
 -0.258280224530E+02 -0.251049599311E+02 -0.244023309660E+02 -0.237186039917E+02 -0.230524388733E+02
 -0.224027035576E+02 -0.217684712425E+02 -0.211490043405E+02 -0.205437308028E+02 -0.199522171818E+02
 -0.193741415380E+02 -0.188092681622E+02 -0.182574251896E+02 -0.177184855405E+02 -0.171923512016E+02
 -0.166789406120E+02 -0.161781787992E+02 -0.156899898630E+02 -0.152142914193E+02 -0.147509906477E+02
 core charge-density (pseudized)
  0.664368237932E-08  0.708277928095E-08  0.755089714963E-08  0.804995405063E-08  0.858199481872E-08
  0.914919943673E-08  0.975389196776E-08  0.103985500778E-07  0.110858151877E-07  0.118185032961E-07
  0.125996165179E-07  0.134323553847E-07  0.143201319591E-07  0.152665838149E-07  0.162755889421E-07
  0.173512816359E-07  0.184980694375E-07  0.197206511925E-07  0.210240363048E-07  0.224135652615E-07
  0.238949315154E-07  0.254742048132E-07  0.271578560655E-07  0.289527838608E-07  0.308663427319E-07
  0.329063732901E-07  0.350812343514E-07  0.373998371856E-07  0.398716820299E-07  0.425068970146E-07
  0.453162796619E-07  0.483113411283E-07  0.515043533697E-07  0.549083994247E-07  0.585374270208E-07
  0.624063057239E-07  0.665308878648E-07  0.709280734919E-07  0.756158796180E-07  0.806135140426E-07
  0.859414540539E-07  0.916215303321E-07  0.976770163983E-07  0.104132723975E-06  0.111015104651E-06
  0.118352358259E-06  0.126174548429E-06  0.134513725761E-06  0.143404059159E-06  0.152881975824E-06
  0.162986310520E-06  0.173758464685E-06  0.185242576078E-06  0.197485699620E-06  0.210538000202E-06
  0.224452958225E-06  0.239287588733E-06  0.255102675022E-06  0.271963017693E-06  0.289937700166E-06
  0.309100371736E-06  0.329529549346E-06  0.351308939296E-06  0.374527780221E-06  0.399281208731E-06
  0.425670649222E-06  0.453804229447E-06  0.483797223554E-06  0.515772524405E-06  0.549861147110E-06
  0.586202765840E-06  0.624946286122E-06  0.666250454953E-06  0.710284511242E-06  0.757228879234E-06
  0.807275907767E-06  0.860630658389E-06  0.917511745557E-06  0.978152232370E-06  0.104280058550E-05
  0.111172169321E-05  0.118519795074E-05  0.126353041728E-05  0.134704004954E-05  0.143606901680E-05
  0.153098210284E-05  0.163216820054E-05  0.174004190532E-05  0.185504521377E-05  0.197764933465E-05
  0.210835661951E-05  0.224770262090E-05  0.239625828667E-05  0.255463229918E-05  0.272347356923E-05
  0.290347389465E-05  0.309537079474E-05  0.329995053191E-05  0.351805133310E-05  0.375056682398E-05
  0.399844969023E-05  0.426271558062E-05  0.454444726815E-05  0.484479908613E-05  0.516500165733E-05
  0.550636693577E-05  0.587029358155E-05  0.625827269095E-05  0.667189390511E-05  0.711285192236E-05
  0.758295344090E-05  0.808412456021E-05  0.861841867152E-05  0.918802486959E-05  0.979527692035E-05
  0.104426628210E-04  0.111328349918E-04  0.118686211410E-04  0.126530358482E-04  0.134892929119E-04
  0.143808185139E-04  0.153312652529E-04  0.163445271047E-04  0.174247553716E-04  0.185763756842E-04
  0.198041061276E-04  0.211129765633E-04  0.225083492287E-04  0.239959406959E-04  0.255818452816E-04
  0.272725600024E-04  0.290750111780E-04  0.309965827917E-04  0.330451467225E-04  0.352290949735E-04
  0.375573740287E-04  0.400395214767E-04  0.426857050524E-04  0.455067642553E-04  0.485142547147E-04
  0.517204954825E-04  0.551386194460E-04  0.587826270673E-04  0.626674436675E-04  0.668089804893E-04
  0.712241997867E-04  0.759311842071E-04  0.809492107471E-04  0.862988295843E-04  0.920019481041E-04
  0.980819204644E-04  0.104563643060E-03  0.111473656278E-03  0.118840252948E-03  0.126693593941E-03
  0.135065831373E-03  0.143991239911E-03  0.153506356731E-03  0.163650130663E-03  0.174464081155E-03
  0.185992467679E-03  0.198282470262E-03  0.211384381885E-03  0.225351813494E-03  0.240241912479E-03
  0.256115595466E-03  0.273037796382E-03  0.291077730757E-03  0.310309177338E-03  0.330810778127E-03
  0.352666358034E-03  0.375965265423E-03  0.400802734878E-03  0.427280273649E-03  0.455506073271E-03
  0.485595447996E-03  0.517671301739E-03  0.551864625365E-03  0.588315026257E-03  0.627171292212E-03
  0.668591991838E-03  0.712746113776E-03  0.759813747177E-03  0.809986806041E-03  0.863469800151E-03
  0.920480655527E-03  0.981251587451E-03  0.104603002934E-02  0.111507962090E-02  0.118868125915E-02
  0.126713421622E-02  0.135075732788E-02  0.143989025717E-02  0.153489483743E-02  0.163615649962E-02
  0.174408578880E-02  0.185911997497E-02  0.198172476366E-02  0.211239611204E-02  0.225166215649E-02
  0.240008525776E-02  0.255826417020E-02  0.272683634186E-02  0.290648035218E-02  0.309791849466E-02
  0.330191951183E-02  0.351930148994E-02  0.375093492138E-02  0.399774594249E-02  0.426071975480E-02
  0.454090423774E-02  0.483941376074E-02  0.515743320269E-02  0.549622218639E-02  0.585711953542E-02
  0.624154796057E-02  0.665101898203E-02  0.708713809338E-02  0.755161017189E-02  0.804624513904E-02
  0.857296387329E-02  0.913380437581E-02  0.973092818742E-02  0.103666270529E-01  0.110433298257E-01
  0.117636096020E-01  0.125301910709E-01  0.133459580602E-01  0.142139612532E-01  0.151374260460E-01
  0.161197605057E-01  0.171645633827E-01  0.182756321200E-01  0.194569707911E-01  0.207127978848E-01
  0.220475538421E-01  0.234659082312E-01  0.249727664301E-01  0.265732756637E-01  0.282728302178E-01
  0.300770756267E-01  0.319919115992E-01  0.340234934140E-01  0.361782314789E-01  0.384627887032E-01
  0.408840752891E-01  0.434492404928E-01  0.461656608517E-01  0.490409243106E-01  0.520828096116E-01
  0.552992602393E-01  0.586983521327E-01  0.622882542917E-01  0.660771813139E-01  0.700733368046E-01
  0.742848465032E-01  0.787196798698E-01  0.833855587739E-01  0.882898518279E-01  0.934394528164E-01
  0.988406415857E-01  0.104498925689E+00  0.110418861038E+00  0.116603849781E+00  0.123055913671E+00
  0.129775441222E+00  0.136760907132E+00  0.144008562625E+00  0.151512095716E+00  0.159262260839E+00
  0.167246477865E+00  0.175448401329E+00  0.183847461666E+00  0.192418381520E+00  0.201130671717E+00
  0.209948113371E+00  0.218828234865E+00  0.227721795108E+00  0.236572287641E+00  0.245315483774E+00
  0.253879037110E+00  0.262182176454E+00  0.270135519259E+00  0.277641043293E+00  0.284592260042E+00
  0.290874639272E+00  0.296366339858E+00  0.300939307077E+00  0.304460800434E+00  0.306795418122E+00
  0.307807683341E+00  0.307365252904E+00  0.305342798310E+00  0.301626592093E+00  0.296119805925E+00
  0.288748489312E+00  0.279468146617E+00  0.268270763173E+00  0.255192046352E+00  0.240318543031E+00
  0.223794170538E+00  0.205825554851E+00  0.186685411340E+00  0.166713036699E+00  0.146310817843E+00
  0.125935522504E+00  0.106083042588E+00  0.872652497049E-01  0.699777371704E-01  0.546575187810E-01
  0.416302953499E-01  0.310477541844E-01  0.228166988917E-01  0.165744191197E-01  0.118994327240E-01
  0.844066552228E-02  0.591351866446E-02  0.409059454910E-02  0.279283981966E-02  0.188134271661E-02
  0.124994262604E-02  0.818737891334E-03  0.528516695678E-03  0.336086825445E-03  0.210443915841E-03
  0.129693847222E-03  0.786319464219E-04  0.468776827368E-04  0.274665137437E-04  0.158083277264E-04
  0.893263778204E-05  0.495271047820E-05  0.269293031332E-05  0.143505043571E-05  0.749033467398E-06
  0.382692875567E-06  0.191261832230E-06  0.934412899516E-07  0.445938772776E-07  0.207739784326E-07
  0.943935533048E-08  0.418023429782E-08  0.180276191690E-08  0.756458414024E-09  0.308570986603E-09
  0.122249546275E-09  0.469942030956E-10  0.175110668187E-10  0.631832866333E-11  0.220519387662E-11
  0.743641798892E-12  0.242021979575E-12  0.759286462879E-13  0.229343586167E-13  0.666119821145E-14
  0.185798406294E-14  0.497025389829E-15  0.127341159318E-15  0.312034280306E-16  0.730215436008E-17
  0.162955212106E-17  0.346248560048E-18  0.699396982111E-19  0.134081200548E-19  0.243551295308E-20
  0.418444894401E-21  0.678787865824E-22  0.103770854694E-22  0.149222291174E-23  0.201443561509E-24
  0.254771475340E-25  0.301240429432E-26  0.332275305256E-27  0.341139112902E-28  0.325242934553E-29
 pseudo wavefunction
  0.122874961095E-03  0.126870548278E-03  0.130996061987E-03  0.135255727108E-03  0.139653905910E-03
  0.144195102513E-03  0.148883967498E-03  0.153725302672E-03  0.158724065985E-03  0.163885376608E-03
  0.169214520173E-03  0.174716954189E-03  0.180398313627E-03  0.186264416697E-03  0.192321270798E-03
  0.198575078680E-03  0.205032244787E-03  0.211699381819E-03  0.218583317508E-03  0.225691101604E-03
  0.233030013098E-03  0.240607567675E-03  0.248431525412E-03  0.256509898725E-03  0.264850960571E-03
  0.273463252925E-03  0.282355595525E-03  0.291537094905E-03  0.301017153720E-03  0.310805480376E-03
  0.320912098972E-03  0.331347359565E-03  0.342121948772E-03  0.353246900708E-03  0.364733608293E-03
  0.376593834914E-03  0.388839726474E-03  0.401483823832E-03  0.414539075641E-03  0.428018851613E-03
  0.441936956210E-03  0.456307642778E-03  0.471145628147E-03  0.486466107701E-03  0.502284770939E-03
  0.518617817542E-03  0.535481973963E-03  0.552894510558E-03  0.570873259269E-03  0.589436631890E-03
  0.608603638915E-03  0.628393909013E-03  0.648827709127E-03  0.669925965227E-03  0.691710283743E-03
  0.714202973688E-03  0.737427069509E-03  0.761406354669E-03  0.786165386011E-03  0.811729518899E-03
  0.838124933189E-03  0.865378660035E-03  0.893518609572E-03  0.922573599501E-03  0.952573384594E-03
  0.983548687170E-03  0.101553122856E-02  0.104855376157E-02  0.108265010405E-02  0.111785517353E-02
  0.115420502293E-02  0.119173687752E-02  0.123048917305E-02  0.127050159508E-02  0.131181511962E-02
  0.135447205511E-02  0.139851608576E-02  0.144399231623E-02  0.149094731787E-02  0.153942917639E-02
  0.158948754110E-02  0.164117367576E-02  0.169454051106E-02  0.174964269884E-02  0.180653666804E-02
  0.186528068250E-02  0.192593490059E-02  0.198856143687E-02  0.205322442561E-02  0.211999008655E-02
  0.218892679265E-02  0.226010514011E-02  0.233359802068E-02  0.240948069628E-02  0.248783087605E-02
  0.256872879597E-02  0.265225730094E-02  0.273850192968E-02  0.282755100226E-02  0.291949571054E-02
  0.301443021158E-02  0.311245172397E-02  0.321366062742E-02  0.331816056554E-02  0.342605855188E-02
  0.353746507959E-02  0.365249423444E-02  0.377126381169E-02  0.389389543664E-02  0.402051468914E-02
  0.415125123217E-02  0.428623894453E-02  0.442561605791E-02  0.456952529837E-02  0.471811403243E-02
  0.487153441791E-02  0.502994355962E-02  0.519350367023E-02  0.536238223619E-02  0.553675218916E-02
  0.571679208301E-02  0.590268627645E-02  0.609462512175E-02  0.629280515940E-02  0.649742931928E-02
  0.670870712820E-02  0.692685492424E-02  0.715209607804E-02  0.738466122127E-02  0.762478848247E-02
  0.787272373059E-02  0.812872082635E-02  0.839304188182E-02  0.866595752836E-02  0.894774719326E-02
  0.923869938529E-02  0.953911198957E-02  0.984929257191E-02  0.101695586930E-01  0.105002382329E-01
  0.108416697257E-01  0.111942027052E-01  0.115581980621E-01  0.119340284117E-01  0.123220784749E-01
  0.127227454700E-01  0.131364395182E-01  0.135635840617E-01  0.140046162955E-01  0.144599876125E-01
  0.149301640640E-01  0.154156268336E-01  0.159168727275E-01  0.164344146800E-01  0.169687822751E-01
  0.175205222850E-01  0.180901992258E-01  0.186783959306E-01  0.192857141416E-01  0.199127751202E-01
  0.205602202771E-01  0.212287118221E-01  0.219189334349E-01  0.226315909563E-01  0.233674131021E-01
  0.241271521992E-01  0.249115849448E-01  0.257215131890E-01  0.265577647430E-01  0.274211942115E-01
  0.283126838512E-01  0.292331444566E-01  0.301835162725E-01  0.311647699347E-01  0.321779074403E-01
  0.332239631467E-01  0.343040048016E-01  0.354191346043E-01  0.365704902991E-01  0.377592463007E-01
  0.389866148544E-01  0.402538472299E-01  0.415622349507E-01  0.429131110588E-01  0.443078514174E-01
  0.457478760497E-01  0.472346505170E-01  0.487696873349E-01  0.503545474296E-01  0.519908416348E-01
  0.536802322282E-01  0.554244345106E-01  0.572252184265E-01  0.590844102268E-01  0.610038941739E-01
  0.629856142907E-01  0.650315761508E-01  0.671438487137E-01  0.693245662010E-01  0.715759300164E-01
  0.739002107074E-01  0.762997499681E-01  0.787769626829E-01  0.813343390096E-01  0.839744465000E-01
  0.866999322572E-01  0.895135251268E-01  0.924180379197E-01  0.954163696633E-01  0.985115078791E-01
  0.101706530880E+00  0.105004610085E+00  0.108409012346E+00  0.111923102282E+00  0.115550344605E+00
  0.119294306446E+00  0.123158659659E+00  0.127147183094E+00  0.131263764843E+00  0.135512404422E+00
  0.139897214896E+00  0.144422424924E+00  0.149092380704E+00  0.153911547803E+00  0.158884512850E+00
  0.164015985068E+00  0.169310797610E+00  0.174773908691E+00  0.180410402463E+00  0.186225489600E+00
  0.192224507567E+00  0.198412920514E+00  0.204796318756E+00  0.211380417779E+00  0.218171056722E+00
  0.225174196259E+00  0.232395915825E+00  0.239842410093E+00  0.247519984628E+00  0.255435050621E+00
  0.263594118597E+00  0.272003790992E+00  0.280670753475E+00  0.289601764878E+00  0.298803645591E+00
  0.308283264273E+00  0.318047522690E+00  0.328103338509E+00  0.338457625842E+00  0.349117273318E+00
  0.360089119458E+00  0.371379925079E+00  0.382996342484E+00  0.394944881114E+00  0.407231869376E+00
  0.419863412285E+00  0.432845344593E+00  0.446183179006E+00  0.459882049098E+00  0.473946646503E+00
  0.488381151946E+00  0.503189159653E+00  0.518373594677E+00  0.533936622639E+00  0.549879551414E+00
  0.566202724251E+00  0.582905403843E+00  0.599985646878E+00  0.617440168613E+00  0.635264197054E+00
  0.653451316392E+00  0.671993299394E+00  0.690879928558E+00  0.710098805947E+00  0.729635151783E+00
  0.749471592032E+00  0.769587935481E+00  0.789960941024E+00  0.810564076231E+00  0.831367268627E+00
  0.852336651557E+00  0.873434307009E+00  0.894618008364E+00  0.915840966686E+00  0.937051584925E+00
  0.958193225222E+00  0.979203995436E+00  0.100001656199E+01  0.102055799721E+01  0.104074967046E+01
  0.106050719343E+01  0.107974043133E+01  0.109835359247E+01  0.111624540996E+01  0.113330943004E+01
  0.114943442172E+01  0.116450492299E+01  0.117840193769E+01  0.119100379633E+01  0.120218719149E+01
  0.121182839503E+01  0.121980465892E+01  0.122599579474E+01  0.123028591740E+01  0.123256532683E+01
  0.123273248659E+01  0.123069604055E+01  0.122637678713E+01  0.121970950651E+01  0.121064450790E+01
  0.119914873445E+01  0.118520623131E+01  0.116881775189E+01  0.114999924931E+01  0.112877897872E+01
  0.110519292719E+01  0.107927829586E+01  0.105106479347E+01  0.102056356925E+01  0.987753727687E+00
  0.952594840321E+00  0.915298271815E+00  0.876202401676E+00  0.835653844256E+00  0.793997629766E+00
  0.751573320865E+00  0.708711386646E+00  0.665729862445E+00  0.622931312071E+00  0.580600103192E+00
  0.539000002752E+00  0.498372100096E+00  0.458933068872E+00  0.420873786618E+00  0.384358337773E+00
  0.349523430832E+00  0.316478259969E+00  0.285304831376E+00  0.256058759067E+00  0.228770511466E+00
  0.203447065556E+00  0.180073902676E+00  0.158617263023E+00  0.139026566782E+00  0.121236908984E+00
  0.105171542000E+00  0.907442723175E-01  0.778617149969E-01  0.664253678381E-01  0.563334857014E-01
  0.474827516011E-01  0.397697533664E-01  0.330922817212E-01  0.273504673536E-01  0.224477718310E-01
  0.182918418084E-01  0.147952299859E-01  0.118759815632E-01  0.945808267600E-02  0.747176780200E-02
  0.585368597835E-02  0.454693004842E-02  0.350093807081E-02  0.267128063291E-02  0.201935149036E-02
  0.151198135913E-02  0.112099571738E-02  0.822737212071E-03  0.597571913833E-03  0.429396487617E-03
  0.305160627581E-03  0.214416110523E-03  0.148900785763E-03  0.102162929368E-03  0.692287866466E-04
 ae wavefunction
  0.107659423120E-02  0.111131685047E-02  0.114715795530E-02  0.118415348326E-02  0.122234052093E-02
  0.126175734018E-02  0.130244343567E-02  0.134443956358E-02  0.138778778126E-02  0.143253148844E-02
  0.147871546942E-02  0.152638593675E-02  0.157559057610E-02  0.162637859264E-02  0.167880075868E-02
  0.173290946288E-02  0.178875876091E-02  0.184640442761E-02  0.190590401079E-02  0.196731688663E-02
  0.203070431670E-02  0.209612950672E-02  0.216365766715E-02  0.223335607546E-02  0.230529414034E-02
  0.237954346782E-02  0.245617792927E-02  0.253527373152E-02  0.261690948894E-02  0.270116629766E-02
  0.278812781203E-02  0.287788032321E-02  0.297051284007E-02  0.306611717246E-02  0.316478801683E-02
  0.326662304431E-02  0.337172299134E-02  0.348019175283E-02  0.359213647793E-02  0.370766766855E-02
  0.382689928060E-02  0.394994882802E-02  0.407693748973E-02  0.420799021947E-02  0.434323585864E-02
  0.448280725223E-02  0.462684136780E-02  0.477547941773E-02  0.492886698461E-02  0.508715414994E-02
  0.525049562623E-02  0.541905089248E-02  0.559298433308E-02  0.577246538028E-02  0.595766866014E-02
  0.614877414225E-02  0.634596729286E-02  0.654943923195E-02  0.675938689390E-02  0.697601319193E-02
  0.719952718639E-02  0.743014425686E-02  0.766808627808E-02  0.791358179976E-02  0.816686623021E-02
  0.842818202394E-02  0.869777887295E-02  0.897591390214E-02  0.926285186810E-02  0.955886536223E-02
  0.986423501724E-02  0.101792497172E-01  0.105042068116E-01  0.108394123328E-01  0.111851812167E-01
  0.115418375268E-01  0.119097146814E-01  0.122891556842E-01  0.126805133571E-01  0.130841505760E-01
  0.135004405089E-01  0.139297668563E-01  0.143725240934E-01  0.148291177135E-01  0.152999644735E-01
  0.157854926391E-01  0.162861422318E-01  0.168023652744E-01  0.173346260373E-01  0.178834012827E-01
  0.184491805083E-01  0.190324661871E-01  0.196337740062E-01  0.202536331001E-01  0.208925862803E-01
  0.215511902594E-01  0.222300158686E-01  0.229296482680E-01  0.236506871478E-01  0.243937469200E-01
  0.251594568996E-01  0.259484614720E-01  0.267614202478E-01  0.275990082008E-01  0.284619157898E-01
  0.293508490600E-01  0.302665297242E-01  0.312096952205E-01  0.321810987438E-01  0.331815092500E-01
  0.342117114295E-01  0.352725056469E-01  0.363647078449E-01  0.374891494086E-01  0.386466769866E-01
  0.398381522667E-01  0.410644517002E-01  0.423264661736E-01  0.436251006201E-01  0.449612735700E-01
  0.463359166322E-01  0.477499739031E-01  0.492044012981E-01  0.507001657982E-01  0.522382446076E-01
  0.538196242151E-01  0.554452993522E-01  0.571162718420E-01  0.588335493301E-01  0.605981438915E-01
  0.624110705032E-01  0.642733453756E-01  0.661859841331E-01  0.681499998340E-01  0.701664008205E-01
  0.722361883883E-01  0.743603542644E-01  0.765398778828E-01  0.787757234457E-01  0.810688367583E-01
  0.834201418243E-01  0.858305371891E-01  0.883008920180E-01  0.908320418923E-01  0.934247843144E-01
  0.960798739005E-01  0.987980172515E-01  0.101579867481E+00  0.104426018390E+00  0.107336998270E+00
  0.110313263310E+00  0.113355190611E+00  0.116463070766E+00  0.119637100009E+00  0.122877371906E+00
  0.126183868571E+00  0.129556451401E+00  0.132994851298E+00  0.136498658380E+00  0.140067311149E+00
  0.143700085119E+00  0.147396080881E+00  0.151154211590E+00  0.154973189882E+00  0.158851514192E+00
  0.162787454480E+00  0.166779037355E+00  0.170824030604E+00  0.174919927122E+00  0.179063928242E+00
  0.183252926498E+00  0.187483487806E+00  0.191751833104E+00  0.196053819466E+00  0.200384920720E+00
  0.204740207613E+00  0.209114327557E+00  0.213501484019E+00  0.217895415614E+00  0.222289374957E+00
  0.226676107377E+00  0.231047829564E+00  0.235396208261E+00  0.239712339121E+00  0.243986725836E+00
  0.248209259714E+00  0.252369199828E+00  0.256455153938E+00  0.260455060354E+00  0.264356170971E+00
  0.268145035680E+00  0.271807488424E+00  0.275328635141E+00  0.278692843906E+00  0.281883737556E+00
  0.284884189149E+00  0.287676320591E+00  0.290241504815E+00  0.292560371905E+00  0.294612819575E+00
  0.296378028456E+00  0.297834482632E+00  0.298959995912E+00  0.299731744333E+00  0.300126305399E+00
  0.300119704583E+00  0.299687469621E+00  0.298804693144E+00  0.297446104182E+00  0.295586149085E+00
  0.293199082389E+00  0.290259068142E+00  0.286740292189E+00  0.282617085875E+00  0.277864061589E+00
  0.272456260537E+00  0.266369313045E+00  0.259579611643E+00  0.252064497101E+00  0.243802457463E+00
  0.234773340047E+00  0.224958576238E+00  0.214341418770E+00  0.202907191031E+00  0.190643547772E+00
  0.177540746419E+00  0.163591927976E+00  0.148793406317E+00  0.133144964429E+00  0.116650155899E+00
  0.993166096879E-01  0.811563358993E-01  0.621860299096E-01  0.424273718445E-01  0.219073179606E-01
  0.658380091254E-03 -0.212811110197E-01 -0.438667628312E-01 -0.670479027131E-01 -0.907673877291E-01
 -0.114961444760E+00 -0.139559541593E+00 -0.164484288026E+00 -0.189651365330E+00 -0.214969483360E+00
 -0.240340367878E+00 -0.265658785825E+00 -0.290812622242E+00 -0.315683027631E+00 -0.340144655671E+00
 -0.364066008017E+00 -0.387309893627E+00 -0.409733999951E+00 -0.431191565210E+00 -0.451532138952E+00
 -0.470602421786E+00 -0.488247179473E+00 -0.504310230380E+00 -0.518635505333E+00 -0.531068177237E+00
 -0.541455855263E+00 -0.549649835587E+00 -0.555506399098E+00 -0.558888145317E+00 -0.559665351058E+00
 -0.557717342710E+00 -0.552933870354E+00 -0.545216472300E+00 -0.534479818482E+00 -0.520653020739E+00
 -0.503680897809E+00 -0.483525182539E+00 -0.460165657822E+00 -0.433601207414E+00 -0.403850766402E+00
 -0.370954155408E+00 -0.334972780780E+00 -0.295990182881E+00 -0.254112412216E+00 -0.209468214261E+00
 -0.162209003448E+00 -0.112508609000E+00 -0.605627792770E-01 -0.658843714327E-02  0.491773134626E-01
  0.106478420610E+00  0.165041341007E+00  0.224576701930E+00  0.284781158497E+00  0.345339461124E+00
  0.405926794441E+00  0.466211520957E+00  0.525858543572E+00  0.584533552262E+00  0.641908266345E+00
  0.697666175026E+00  0.751506987063E+00  0.803146657132E+00  0.852310599218E+00  0.898722499987E+00
  0.942097160122E+00  0.982145126258E+00  0.101858736891E+01  0.105117055687E+01  0.107967619105E+01
  0.110392382683E+01  0.112377154951E+01  0.113911599318E+01  0.114989268583E+01  0.115607668274E+01
  0.115768317720E+01  0.115476776381E+01  0.114742611124E+01  0.113579292042E+01  0.112004013664E+01
  0.110037446601E+01  0.107703428942E+01  0.105028608350E+01  0.102042046972E+01  0.987748008609E+00
  0.952594840321E+00  0.915298271815E+00  0.876202401676E+00  0.835653844256E+00  0.793997629766E+00
  0.751573320865E+00  0.708711386646E+00  0.665729862445E+00  0.622931312071E+00  0.580600103192E+00
  0.539000002752E+00  0.498372100096E+00  0.458933068872E+00  0.420873786618E+00  0.384358337773E+00
  0.349523430832E+00  0.316478259969E+00  0.285304831376E+00  0.256058759067E+00  0.228770511466E+00
  0.203447065556E+00  0.180073902676E+00  0.158617263023E+00  0.139026566782E+00  0.121236908984E+00
  0.105171542000E+00  0.907442723175E-01  0.778617149969E-01  0.664253678381E-01  0.563334857014E-01
  0.474827516011E-01  0.397697533664E-01  0.330922817212E-01  0.273504673536E-01  0.224477718310E-01
  0.182918418084E-01  0.147952299859E-01  0.118759815632E-01  0.945808267600E-02  0.747176780200E-02
  0.585368597835E-02  0.454693004842E-02  0.350093807081E-02  0.267128063291E-02  0.201935149036E-02
  0.151198135913E-02  0.112099571738E-02  0.822737212071E-03  0.597571913833E-03  0.429396487617E-03
  0.305160627581E-03  0.214416110523E-03  0.148900785763E-03  0.102162929368E-03  0.692287866466E-04
 pseudo wavefunction
  0.142174192078E-03  0.146797342105E-03  0.151570825434E-03  0.156499530532E-03  0.161588504821E-03
  0.166842959856E-03  0.172268276658E-03  0.177870011224E-03  0.183653900221E-03  0.189625866855E-03
  0.195792026942E-03  0.202158695167E-03  0.208732391556E-03  0.215519848146E-03  0.222528015885E-03
  0.229764071750E-03  0.237235426093E-03  0.244949730232E-03  0.252914884287E-03  0.261139045273E-03
  0.269630635446E-03  0.278398350936E-03  0.287451170648E-03  0.296798365458E-03  0.306449507710E-03
  0.316414481014E-03  0.326703490371E-03  0.337327072623E-03  0.348296107245E-03  0.359621827483E-03
  0.371315831860E-03  0.383390096057E-03  0.395856985169E-03  0.408729266377E-03  0.422020122017E-03
  0.435743163080E-03  0.449912443154E-03  0.464542472814E-03  0.479648234480E-03  0.495245197765E-03
  0.511349335313E-03  0.527977139159E-03  0.545145637617E-03  0.562872412717E-03  0.581175618213E-03
  0.600073998173E-03  0.619586906174E-03  0.639734325121E-03  0.660536887713E-03  0.682015897572E-03
  0.704193351057E-03  0.727091959794E-03  0.750735173931E-03  0.775147206155E-03  0.800353056486E-03
  0.826378537881E-03  0.853250302667E-03  0.880995869833E-03  0.909643653216E-03  0.939222990595E-03
  0.969764173736E-03  0.100129847941E-02  0.103385820144E-02  0.106747668374E-02  0.110218835448E-02
  0.113802876136E-02  0.117503460797E-02  0.121324379142E-02  0.125269544112E-02  0.129342995887E-02
  0.133548906021E-02  0.137891581718E-02  0.142375470237E-02  0.147005163451E-02  0.151785402549E-02
  0.156721082886E-02  0.161817259004E-02  0.167079149801E-02  0.172512143879E-02  0.178121805063E-02
  0.183913878095E-02  0.189894294518E-02  0.196069178753E-02  0.202444854366E-02  0.209027850546E-02
  0.215824908790E-02  0.222842989808E-02  0.230089280648E-02  0.237571202057E-02  0.245296416079E-02
  0.253272833902E-02  0.261508623958E-02  0.270012220287E-02  0.278792331171E-02  0.287857948056E-02
  0.297218354753E-02  0.306883136947E-02  0.316862192010E-02  0.327165739139E-02  0.337804329811E-02
  0.348788858596E-02  0.360130574305E-02  0.371841091509E-02  0.383932402428E-02  0.396416889215E-02
  0.409307336624E-02  0.422616945104E-02  0.436359344315E-02  0.450548607072E-02  0.465199263762E-02
  0.480326317209E-02  0.495945258039E-02  0.512072080531E-02  0.528723298992E-02  0.545915964657E-02
  0.563667683144E-02  0.581996632471E-02  0.600921581661E-02  0.620461909949E-02  0.640637626614E-02
  0.661469391456E-02  0.682978535932E-02  0.705187084988E-02  0.728117779585E-02  0.751794099973E-02
  0.776240289705E-02  0.801481380439E-02  0.827543217543E-02  0.854452486522E-02  0.882236740317E-02
  0.910924427476E-02  0.940544921239E-02  0.971128549575E-02  0.100270662618E-01  0.103531148249E-01
  0.106897650071E-01  0.110373614794E-01  0.113962601141E-01  0.117668283477E-01  0.121494455569E-01
  0.125445034458E-01  0.129524064456E-01  0.133735721277E-01  0.138084316301E-01  0.142574300967E-01
  0.147210271320E-01  0.151996972697E-01  0.156939304561E-01  0.162042325504E-01  0.167311258393E-01
  0.172751495694E-01  0.178368604965E-01  0.184168334520E-01  0.190156619279E-01  0.196339586806E-01
  0.202723563536E-01  0.209315081205E-01  0.216120883483E-01  0.223147932820E-01  0.230403417506E-01
  0.237894758963E-01  0.245629619260E-01  0.253615908873E-01  0.261861794682E-01  0.270375708236E-01
  0.279166354255E-01  0.288242719425E-01  0.297614081449E-01  0.307290018392E-01  0.317280418311E-01
  0.327595489193E-01  0.338245769192E-01  0.349242137190E-01  0.360595823678E-01  0.372318421975E-01
  0.384421899790E-01  0.396918611130E-01  0.409821308579E-01  0.423143155937E-01  0.436897741247E-01
  0.451099090203E-01  0.465761679962E-01  0.480900453355E-01  0.496530833523E-01  0.512668738968E-01
  0.529330599042E-01  0.546533369875E-01  0.564294550756E-01  0.582632200966E-01  0.601564957079E-01
  0.621112050730E-01  0.641293326868E-01  0.662129262481E-01  0.683640985817E-01  0.705850296089E-01
  0.728779683682E-01  0.752452350842E-01  0.776892232872E-01  0.802124019811E-01  0.828173178606E-01
  0.855065975768E-01  0.882829500498E-01  0.911491688282E-01  0.941081344934E-01  0.971628171072E-01
  0.100316278700E+00  0.103571675801E+00  0.106932261998E+00  0.110401390535E+00  0.113982516936E+00
  0.117679201656E+00  0.121495112739E+00  0.125434028505E+00  0.129499840227E+00  0.133696554814E+00
  0.138028297478E+00  0.142499314382E+00  0.147113975250E+00  0.151876775935E+00  0.156792340923E+00
  0.161865425758E+00  0.167100919379E+00  0.172503846331E+00  0.178079368847E+00  0.183832788759E+00
  0.189769549220E+00  0.195895236210E+00  0.202215579774E+00  0.208736454974E+00  0.215463882497E+00
  0.222404028889E+00  0.229563206347E+00  0.236947872016E+00  0.244564626747E+00  0.252420213213E+00
  0.260521513344E+00  0.268875544971E+00  0.277489457599E+00  0.286370527210E+00  0.295526149984E+00
  0.304963834812E+00  0.314691194489E+00  0.324715935417E+00  0.335045845680E+00  0.345688781324E+00
  0.356652650635E+00  0.367945396240E+00  0.379574974791E+00  0.391549334007E+00  0.403876386817E+00
  0.416563982317E+00  0.429619873252E+00  0.443051679704E+00  0.456866848630E+00  0.471072608882E+00
  0.485675921331E+00  0.500683423645E+00  0.516101369305E+00  0.531935560367E+00  0.548191273475E+00
  0.564873178619E+00  0.581985250072E+00  0.599530668965E+00  0.617511716912E+00  0.635929660088E+00
  0.654784623191E+00  0.674075452668E+00  0.693799568651E+00  0.713952805041E+00  0.734529237221E+00
  0.755520996958E+00  0.776918074101E+00  0.798708104802E+00  0.820876146132E+00  0.843404437085E+00
  0.866272146222E+00  0.889455106421E+00  0.912925537497E+00  0.936651757851E+00  0.960597886684E+00
  0.984723538831E+00  0.100898351485E+01  0.103332748965E+01  0.105769970365E+01  0.108203866142E+01
  0.110627684354E+01  0.113034043861E+01  0.115414910332E+01  0.117761575980E+01  0.120064644076E+01
  0.122314019404E+01  0.124498905986E+01  0.126607813480E+01  0.128628573821E+01  0.130548369709E+01
  0.132353776650E+01  0.134030820230E+01  0.135565050264E+01  0.136941633293E+01  0.138145464673E+01
  0.139161301060E+01  0.139973913558E+01  0.140568261000E+01  0.140929681781E+01  0.141044101395E+01
  0.140898251167E+01  0.140479891713E+01  0.139778032339E+01  0.138783134925E+01  0.137487287844E+01
  0.135884332280E+01  0.133969919993E+01  0.131741478429E+01  0.129198056347E+01  0.126340021241E+01
  0.123168579438E+01  0.119685091437E+01  0.115890159751E+01  0.111782475325E+01  0.107357422481E+01
  0.102608997600E+01  0.975571098551E+00  0.922364219711E+00  0.866812643070E+00  0.000000000000E+00
  0.000000000000E+00  0.000000000000E+00  0.000000000000E+00  0.000000000000E+00  0.000000000000E+00
  0.000000000000E+00  0.000000000000E+00  0.000000000000E+00  0.000000000000E+00  0.000000000000E+00
  0.000000000000E+00  0.000000000000E+00  0.000000000000E+00  0.000000000000E+00  0.000000000000E+00
  0.000000000000E+00  0.000000000000E+00  0.000000000000E+00  0.000000000000E+00  0.000000000000E+00
  0.000000000000E+00  0.000000000000E+00  0.000000000000E+00  0.000000000000E+00  0.000000000000E+00
  0.000000000000E+00  0.000000000000E+00  0.000000000000E+00  0.000000000000E+00  0.000000000000E+00
  0.000000000000E+00  0.000000000000E+00  0.000000000000E+00  0.000000000000E+00  0.000000000000E+00
  0.000000000000E+00  0.000000000000E+00  0.000000000000E+00  0.000000000000E+00  0.000000000000E+00
  0.000000000000E+00  0.000000000000E+00  0.000000000000E+00  0.000000000000E+00  0.000000000000E+00
  0.000000000000E+00  0.000000000000E+00  0.000000000000E+00  0.000000000000E+00  0.000000000000E+00
 ae wavefunction
  0.123947686079E-02  0.127945281627E-02  0.132071647786E-02  0.136330922027E-02  0.140727374105E-02
  0.145265410242E-02  0.149949577435E-02  0.154784567919E-02  0.159775223734E-02  0.164926541464E-02
  0.170243677103E-02  0.175731951073E-02  0.181396853400E-02  0.187244049047E-02  0.193279383399E-02
  0.199508887935E-02  0.205938786053E-02  0.212575499079E-02  0.219425652460E-02  0.226496082140E-02
  0.233793841130E-02  0.241326206268E-02  0.249100685197E-02  0.257125023534E-02  0.265407212263E-02
  0.273955495343E-02  0.282778377546E-02  0.291884632518E-02  0.301283311086E-02  0.310983749804E-02
  0.320995579748E-02  0.331328735569E-02  0.341993464809E-02  0.353000337483E-02  0.364360255937E-02
  0.376084464995E-02  0.388184562385E-02  0.400672509466E-02  0.413560642261E-02  0.426861682789E-02
  0.440588750730E-02  0.454755375396E-02  0.469375508046E-02  0.484463534531E-02  0.500034288288E-02
  0.516103063683E-02  0.532685629714E-02  0.549798244079E-02  0.567457667616E-02  0.585681179122E-02
  0.604486590558E-02  0.623892262650E-02  0.643917120875E-02  0.664580671870E-02  0.685903020231E-02
  0.707904885750E-02  0.730607621049E-02  0.754033229660E-02  0.778204384520E-02  0.803144446907E-02
  0.828877485819E-02  0.855428297778E-02  0.882822427090E-02  0.911086186547E-02  0.940246678568E-02
  0.970331816795E-02  0.100137034812E-01  0.103339187517E-01  0.106642687922E-01  0.110050674355E-01
  0.113566377723E-01  0.117193123931E-01  0.120934336345E-01  0.124793538298E-01  0.128774355626E-01
  0.132880519251E-01  0.137115867801E-01  0.141484350252E-01  0.145990028622E-01  0.150637080678E-01
  0.155429802679E-01  0.160372612146E-01  0.165470050643E-01  0.170726786591E-01  0.176147618082E-01
  0.181737475714E-01  0.187501425422E-01  0.193444671317E-01  0.199572558509E-01  0.205890575931E-01
  0.212404359135E-01  0.219119693058E-01  0.226042514768E-01  0.233178916153E-01  0.240535146562E-01
  0.248117615386E-01  0.255932894563E-01  0.263987720995E-01  0.272288998869E-01  0.280843801863E-01
  0.289659375229E-01  0.298743137724E-01  0.308102683391E-01  0.317745783144E-01  0.327680386177E-01
  0.337914621124E-01  0.348456797001E-01  0.359315403862E-01  0.370499113168E-01  0.382016777833E-01
  0.393877431918E-01  0.406090289937E-01  0.418664745750E-01  0.431610371000E-01  0.444936913056E-01
  0.458654292426E-01  0.472772599586E-01  0.487302091194E-01  0.502253185627E-01  0.517636457792E-01
  0.533462633168E-01  0.549742580989E-01  0.566487306556E-01  0.583707942555E-01  0.601415739364E-01
  0.619622054242E-01  0.638338339332E-01  0.657576128410E-01  0.677347022273E-01  0.697662672697E-01
  0.718534764849E-01  0.739974998083E-01  0.761995064980E-01  0.784606628558E-01  0.807821297515E-01
  0.831650599393E-01  0.856105951546E-01  0.881198629764E-01  0.906939734441E-01  0.933340154129E-01
  0.960410526339E-01  0.988161195438E-01  0.101660216749E+00  0.104574306186E+00  0.107559305946E+00
  0.110616084736E+00  0.113745455981E+00  0.116948171515E+00  0.120224914881E+00  0.123576294188E+00
  0.127002834528E+00  0.130504969927E+00  0.134083034803E+00  0.137737254929E+00  0.141467737858E+00
  0.145274462822E+00  0.149157270048E+00  0.153115849513E+00  0.157149729088E+00  0.161258262071E+00
  0.165440614090E+00  0.169695749359E+00  0.174022416274E+00  0.178419132347E+00  0.182884168448E+00
  0.187415532372E+00  0.192010951714E+00  0.196667856044E+00  0.201383358410E+00  0.206154236145E+00
  0.210976911010E+00  0.215847428682E+00  0.220761437609E+00  0.225714167266E+00  0.230700405831E+00
  0.235714477347E+00  0.240750218400E+00  0.245800954384E+00  0.250859475423E+00  0.255918012020E+00
  0.260968210546E+00  0.266001108644E+00  0.271007110699E+00  0.275975963478E+00  0.280896732106E+00
  0.285757776536E+00  0.290546728692E+00  0.295250470495E+00  0.299855112975E+00  0.304345976730E+00
  0.308707573973E+00  0.312923592467E+00  0.316976881638E+00  0.320849441221E+00  0.324522412757E+00
  0.327976074367E+00  0.331189839154E+00  0.334142257723E+00  0.336811025214E+00  0.339172993378E+00
  0.341204188168E+00  0.342879833391E+00  0.344174380959E+00  0.345061548319E+00  0.345514363640E+00
  0.345505219371E+00  0.345005934767E+00  0.343987828028E+00  0.342421798654E+00  0.340278420649E+00
  0.337528047184E+00  0.334140927314E+00  0.330087335312E+00  0.325337713177E+00  0.319862826769E+00
  0.313633936048E+00  0.306622979753E+00  0.298802774807E+00  0.290147230655E+00  0.280631578587E+00
  0.270232616010E+00  0.258928965474E+00  0.246701348088E+00  0.233532870826E+00  0.219409326976E+00
  0.204319508825E+00  0.188255531427E+00  0.171213166060E+00  0.153192181708E+00  0.134196692631E+00
  0.114235509747E+00  0.933224931973E-01  0.714769030586E-01  0.487237447375E-01  0.250941050745E-01
  0.625474740592E-03 -0.246379478875E-01 -0.506449763665E-01 -0.773371841201E-01 -0.104648684678E+00
 -0.132505946833E+00 -0.160827645441E+00 -0.189524546789E+00 -0.218499426610E+00 -0.247647019978E+00
 -0.276854006021E+00 -0.305999036406E+00 -0.334952823396E+00 -0.363578309142E+00 -0.391730939167E+00
 -0.419259059340E+00 -0.446004444934E+00 -0.471802958727E+00 -0.496485325777E+00 -0.519878010156E+00
 -0.541804183214E+00 -0.562084777860E+00 -0.580539627800E+00 -0.596988690624E+00 -0.611253351835E+00
 -0.623157803830E+00 -0.632530490699E+00 -0.639205607862E+00 -0.643024644217E+00 -0.643837953651E+00
 -0.641506343191E+00 -0.635902664255E+00 -0.626913393955E+00 -0.614440193141E+00 -0.598401427495E+00
 -0.578733637660E+00 -0.555392944041E+00 -0.528356370765E+00 -0.497623072836E+00 -0.463215448918E+00
 -0.425180121382E+00 -0.383588763085E+00 -0.338538750214E+00 -0.290153617716E+00 -0.238583295173E+00
 -0.184004100449E+00 -0.126618471021E+00 -0.666544175010E-01 -0.436469052956E-02  0.599743388722E-01
  0.126064075162E+00  0.193585352011E+00  0.262200323217E+00  0.331554579770E+00  0.401279510802E+00
  0.470994979778E+00  0.540312470349E+00  0.608838949077E+00  0.676181750433E+00  0.741954610076E+00
  0.805784268204E+00  0.867315574818E+00  0.926211486605E+00  0.982145216960E+00  0.103478734879E+01
  0.108379763740E+01  0.112883042271E+01  0.116955159351E+01  0.120565619732E+01  0.123687895261E+01
  0.126299795010E+01  0.128383519381E+01  0.129925661327E+01  0.130917243867E+01  0.131353788631E+01
  0.131235378938E+01  0.130566679469E+01  0.129356884058E+01  0.127619576883E+01  0.125372502873E+01
  0.122637252477E+01  0.119438870687E+01  0.115805401854E+01  0.111767382963E+01  0.107357297204E+01
  0.102608997600E+01  0.975571098551E+00  0.922364219711E+00  0.866812643070E+00  0.000000000000E+00
  0.000000000000E+00  0.000000000000E+00  0.000000000000E+00  0.000000000000E+00  0.000000000000E+00
  0.000000000000E+00  0.000000000000E+00  0.000000000000E+00  0.000000000000E+00  0.000000000000E+00
  0.000000000000E+00  0.000000000000E+00  0.000000000000E+00  0.000000000000E+00  0.000000000000E+00
  0.000000000000E+00  0.000000000000E+00  0.000000000000E+00  0.000000000000E+00  0.000000000000E+00
  0.000000000000E+00  0.000000000000E+00  0.000000000000E+00  0.000000000000E+00  0.000000000000E+00
  0.000000000000E+00  0.000000000000E+00  0.000000000000E+00  0.000000000000E+00  0.000000000000E+00
  0.000000000000E+00  0.000000000000E+00  0.000000000000E+00  0.000000000000E+00  0.000000000000E+00
  0.000000000000E+00  0.000000000000E+00  0.000000000000E+00  0.000000000000E+00  0.000000000000E+00
  0.000000000000E+00  0.000000000000E+00  0.000000000000E+00  0.000000000000E+00  0.000000000000E+00
  0.000000000000E+00  0.000000000000E+00  0.000000000000E+00  0.000000000000E+00  0.000000000000E+00
 pseudo wavefunction
  0.677635619564E-08  0.722422183019E-08  0.770168797866E-08  0.821071101002E-08  0.875337659432E-08
  0.933190824856E-08  0.994867644728E-08  0.106062083354E-07  0.113071980829E-07  0.120545179239E-07
  0.128512299253E-07  0.137005985335E-07  0.146061039498E-07  0.155714563904E-07  0.166006112886E-07
  0.176977855019E-07  0.188674745897E-07  0.201144712339E-07  0.214438848762E-07  0.228611626536E-07
  0.243721117172E-07  0.259829230268E-07  0.277001967175E-07  0.295309691432E-07  0.314827417072E-07
  0.335635115984E-07  0.357818045592E-07  0.381467098186E-07  0.406679173346E-07  0.433557574975E-07
  0.462212434579E-07  0.492761162518E-07  0.525328929085E-07  0.560049177373E-07  0.597064170050E-07
  0.636525572263E-07  0.678595073071E-07  0.723445047946E-07  0.771259265069E-07  0.822233638297E-07
  0.876577029898E-07  0.934512106348E-07  0.996276250679E-07  0.106212253513E-06  0.113232075809E-06
  0.120715854957E-06  0.128694254971E-06  0.137199966524E-06  0.146267840894E-06  0.155935032760E-06
  0.166241152444E-06  0.177228428207E-06  0.188941879275E-06  0.201429500301E-06  0.214742458020E-06
  0.228935300893E-06  0.244066182620E-06  0.260197100415E-06  0.277394149034E-06  0.295727791587E-06
  0.315273148261E-06  0.336110304107E-06  0.358324637186E-06  0.382007168391E-06  0.407254934402E-06
  0.434171385272E-06  0.462866808311E-06  0.493458779971E-06  0.526072647600E-06  0.560842043041E-06
  0.597909430170E-06  0.637426688625E-06  0.679555736115E-06  0.724469191856E-06  0.772351083854E-06
  0.823397602941E-06  0.877817906639E-06  0.935834976153E-06  0.997686530009E-06  0.106362599807E-05
  0.113392355994E-05  0.120886725197E-05  0.128876414745E-05  0.137394161481E-05  0.146474865895E-05
  0.156155735123E-05  0.166476435398E-05  0.177479254578E-05  0.189209275409E-05  0.201714560248E-05
  0.215046347988E-05  0.229259264002E-05  0.244411543957E-05  0.260565272428E-05  0.277786637274E-05
  0.296146200834E-05  0.315719189033E-05  0.336585799615E-05  0.358831530727E-05  0.382547531231E-05
  0.407830974167E-05  0.434785454890E-05  0.463521415532E-05  0.494156597503E-05  0.526816523909E-05
  0.561635013842E-05  0.598754730667E-05  0.638327766538E-05  0.680516265545E-05  0.725493088047E-05
  0.773442518901E-05  0.824561022501E-05  0.879058047715E-05  0.937156886012E-05  0.999095586302E-05
  0.106512793023E-04  0.113552447194E-04  0.121057364651E-04  0.129058295167E-04  0.137588020760E-04
  0.146681489999E-04  0.156375961183E-04  0.166711154983E-04  0.177729417167E-04  0.189475892085E-04
  0.201998707610E-04  0.215349172303E-04  0.229581985604E-04  0.244755461917E-04  0.260931769491E-04
  0.278177185093E-04  0.296562365503E-04  0.316162636953E-04  0.337058303676E-04  0.359334976853E-04
  0.383083925288E-04  0.408402449240E-04  0.435394278970E-04  0.464169999595E-04  0.494847504020E-04
  0.527552475784E-04  0.562418903802E-04  0.599589631094E-04  0.639216939772E-04  0.681463174652E-04
  0.726501408046E-04  0.774516148465E-04  0.825704096114E-04  0.880274948266E-04  0.938452257824E-04
  0.100047434856E-03  0.106659529074E-03  0.113708594126E-03  0.121223505227E-03  0.129235045309E-03
  0.137776031013E-03  0.146881446984E-03  0.156588589039E-03  0.166937216771E-03  0.177969716224E-03
  0.189731273299E-03  0.202270058589E-03  0.215637424408E-03  0.229888114805E-03  0.245080489425E-03
  0.261276762121E-03  0.278543255287E-03  0.296950670953E-03  0.316574379724E-03  0.337494728756E-03
  0.359797370003E-03  0.383573610065E-03  0.408920783060E-03  0.435942648019E-03  0.464749812416E-03
  0.495460183531E-03  0.528199449485E-03  0.563101591861E-03  0.600309431986E-03  0.639975213070E-03
  0.682261220525E-03  0.727340442963E-03  0.775397276506E-03  0.826628275225E-03  0.881242950700E-03
  0.939464623877E-03  0.100153133261E-02  0.106769679848E-02  0.113823145673E-02  0.121342355333E-02
  0.129358031354E-02  0.137902918654E-02  0.147011917101E-02  0.156722222670E-02  0.167073477775E-02
  0.178107931326E-02  0.189870609148E-02  0.202409495416E-02  0.215775725789E-02  0.230023792984E-02
  0.245211765568E-02  0.261401520795E-02  0.278658992344E-02  0.297054433900E-02  0.316662699533E-02
  0.337563541908E-02  0.359841929417E-02  0.383588383360E-02  0.408899336392E-02  0.435877513495E-02
  0.464632336807E-02  0.495280355704E-02  0.527945703611E-02  0.562760583056E-02  0.599865780597E-02
  0.639411213283E-02  0.681556508392E-02  0.726471618285E-02  0.774337472234E-02  0.825346667198E-02
  0.879704199548E-02  0.937628239825E-02  0.999350952648E-02  0.106511936395E-01  0.113519627773E-01
  0.120986124460E-01  0.128941158428E-01  0.137416346434E-01  0.146445303735E-01  0.156063763865E-01
  0.166309704663E-01  0.177223480767E-01  0.188847962734E-01  0.201228682958E-01  0.214413988502E-01
  0.228455200951E-01  0.243406783343E-01  0.259326514189E-01  0.276275668522E-01  0.294319205873E-01
  0.313525964964E-01  0.333968864824E-01  0.355725111916E-01  0.378876412743E-01  0.403509191230E-01
  0.429714810018E-01  0.457589794607E-01  0.487236059030E-01  0.518761131506E-01  0.552278378191E-01
  0.587907222828E-01  0.625773359678E-01  0.666008956706E-01  0.708752845486E-01  0.754150693740E-01
  0.802355155792E-01  0.853525995569E-01  0.907830175952E-01  0.965441907499E-01  0.102654264857E+00
  0.109132104794E+00  0.115997281968E+00  0.123270053925E+00  0.130971334795E+00  0.139122655188E+00
  0.147746109989E+00  0.156864292351E+00  0.166500212006E+00  0.176677195887E+00  0.187418768837E+00
  0.198748512052E+00  0.210689896747E+00  0.223266090374E+00  0.236499732611E+00  0.250412678279E+00
  0.265025704248E+00  0.280358177476E+00  0.296427681373E+00  0.313249597893E+00  0.330836643078E+00
  0.349198354232E+00  0.368340527566E+00  0.388264605991E+00  0.408967017909E+00  0.430438469215E+00
  0.452663192521E+00  0.475618159771E+00  0.499272266974E+00  0.523585502848E+00  0.548508116731E+00
  0.573979805155E+00  0.599928941075E+00  0.626271874755E+00  0.652912340729E+00  0.679741010913E+00
  0.706635239589E+00  0.733459051361E+00  0.760063427792E+00  0.786286951812E+00  0.811956870212E+00
  0.836890632919E+00  0.860897961951E+00  0.883783491753E+00  0.905350004437E+00  0.925402256637E+00
  0.943751357373E+00  0.960219606855E+00  0.974645642945E+00  0.986889664110E+00  0.996838404958E+00
  0.100440943428E+01  0.100955422915E+01  0.101225935861E+01  0.101254499610E+01  0.101045988700E+01
  0.100607184514E+01  0.999452868275E+00  0.990658079673E+00  0.979697960606E+00  0.966503781248E+00
  0.950915604569E+00  0.932963838356E+00  0.912798123130E+00  0.890585456604E+00  0.866502319806E+00
  0.840732903579E+00  0.813467369092E+00  0.784900139488E+00  0.755228215538E+00  0.724649507087E+00
  0.693361158873E+00  0.661557861218E+00  0.629430136316E+00  0.597162609800E+00  0.564932290002E+00
  0.532906928013E+00  0.501243458720E+00  0.470086683689E+00  0.439568202965E+00  0.409805680948E+00
  0.380902477544E+00  0.352947650945E+00  0.326016307993E+00  0.300170250779E+00  0.275458847007E+00
  0.251920038634E+00  0.229581399161E+00  0.208461155074E+00  0.188569100977E+00  0.169907359797E+00
  0.152470966888E+00  0.136248286153E+00  0.121221292823E+00  0.107365776811E+00  0.946515292503E-01
  0.830425723572E-01  0.724974805649E-01  0.629698226975E-01  0.544087347694E-01  0.467596145173E-01
  0.399649144083E-01  0.339650006920E-01  0.286990420017E-01  0.241058912578E-01  0.201249280373E-01
  0.166968339963E-01  0.137642803452E-01  0.112725130113E-01  0.916982741956E-02  0.740793044972E-02
  0.594219188888E-02  0.473179153229E-02  0.373977098768E-02  0.293300127412E-02  0.228207855311E-02
 ae wavefunction
 -0.451981104250E-06 -0.479427153534E-06 -0.508398850896E-06 -0.538989394083E-06 -0.571297334879E-06
 -0.605426915816E-06 -0.641488428041E-06 -0.679598583748E-06 -0.719880923325E-06 -0.762466234859E-06
 -0.807493009336E-06 -0.855107919171E-06 -0.905466326433E-06 -0.958732823594E-06 -0.101508180983E-05
 -0.107469809839E-05 -0.113777756691E-05 -0.120452784628E-05 -0.127516905200E-05 -0.134993456255E-05
 -0.142907184753E-05 -0.151284334653E-05 -0.160152740354E-05 -0.169541926200E-05 -0.179483212105E-05
 -0.190009825997E-05 -0.201157023326E-05 -0.212962214216E-05 -0.225465098669E-05 -0.238707810453E-05
 -0.252735069977E-05 -0.267594347263E-05 -0.283336034931E-05 -0.300013632571E-05 -0.317683942725E-05
 -0.336407279523E-05 -0.356247690651E-05 -0.377273193581E-05 -0.399556026958E-05 -0.423172918169E-05
 -0.448205368098E-05 -0.474739954163E-05 -0.502868652938E-05 -0.532689183520E-05 -0.564305372980E-05
 -0.597827545441E-05 -0.633372936192E-05 -0.671066132534E-05 -0.711039542968E-05 -0.753433897009E-05
 -0.798398776781E-05 -0.846093183105E-05 -0.896686138544E-05 -0.950357328524E-05 -0.100729778495E-04
 -0.106771061273E-04 -0.113181176444E-04 -0.119983086400E-04 -0.127201208426E-04 -0.134861508070E-04
 -0.142991598573E-04 -0.151620846710E-04 -0.160780485446E-04 -0.170503733868E-04 -0.180825924860E-04
 -0.191784640970E-04 -0.203419859148E-04 -0.215774104548E-04 -0.228892614670E-04 -0.242823513551E-04
 -0.257617997528E-04 -0.273330532877E-04 -0.290019066114E-04 -0.307745247684E-04 -0.326574670297E-04
 -0.346577122305E-04 -0.367826857484E-04 -0.390402881979E-04 -0.414389259738E-04 -0.439875437396E-04
 -0.466956590082E-04 -0.495733989024E-04 -0.526315393059E-04 -0.558815464717E-04 -0.593356213032E-04
 -0.630067464457E-04 -0.669087363834E-04 -0.710562907056E-04 -0.754650507707E-04 -0.801516599416E-04
 -0.851338276595E-04 -0.904303975502E-04 -0.960614198481E-04 -0.102048228378E-03 -0.108413522396E-03
 -0.115181453578E-03 -0.122377718464E-03 -0.130029656722E-03 -0.138166355547E-03 -0.146818760593E-03
 -0.156019793844E-03 -0.165804478807E-03 -0.176210073516E-03 -0.187276211778E-03 -0.199045053172E-03
 -0.211561442318E-03 -0.224873078016E-03 -0.239030692721E-03 -0.254088243106E-03 -0.270103112285E-03
 -0.287136324368E-03 -0.305252772149E-03 -0.324521458585E-03 -0.345015752937E-03 -0.366813662422E-03
 -0.389998120164E-03 -0.414657290534E-03 -0.440884892697E-03 -0.468780543503E-03 -0.498450120770E-03
 -0.530006148044E-03 -0.563568202118E-03 -0.599263344453E-03 -0.637226577858E-03 -0.677601329795E-03
 -0.720539963662E-03 -0.766204319626E-03 -0.814766286485E-03 -0.866408406199E-03 -0.921324512750E-03
 -0.979720407090E-03 -0.104181456996E-02 -0.110783891449E-02 -0.117803958047E-02 -0.125267777235E-02
 -0.133203064296E-02 -0.141639222524E-02 -0.150607441392E-02 -0.160140799965E-02 -0.170274375770E-02
 -0.181045359368E-02 -0.192493174862E-02 -0.204659606581E-02 -0.217588932195E-02 -0.231328062495E-02
 -0.245926688094E-02 -0.261437433291E-02 -0.277916017351E-02 -0.295421423430E-02 -0.314016075385E-02
 -0.333766022711E-02 -0.354741133795E-02 -0.377015297717E-02 -0.400666634785E-02 -0.425777715959E-02
 -0.452435791335E-02 -0.480733027794E-02 -0.510766755926E-02 -0.542639726271E-02 -0.576460374899E-02
 -0.612343098308E-02 -0.650408537537E-02 -0.690783871372E-02 -0.733603118430E-02 -0.779007447823E-02
 -0.827145498047E-02 -0.878173703635E-02 -0.932256628988E-02 -0.989567308723E-02 -0.105028759372E-01
 -0.111460850190E-01 -0.118273057268E-01 -0.125486422379E-01 -0.133123010898E-01 -0.141205947507E-01
 -0.149759451632E-01 -0.158808872413E-01 -0.168380722971E-01 -0.178502713699E-01 -0.189203784296E-01
 -0.200514134210E-01 -0.212465251145E-01 -0.225089937218E-01 -0.238422332362E-01 -0.252497934469E-01
 -0.267353615787E-01 -0.283027634993E-01 -0.299559644340E-01 -0.316990691212E-01 -0.335363213391E-01
 -0.354721027254E-01 -0.375109308101E-01 -0.396574561712E-01 -0.419164586225E-01 -0.442928423313E-01
 -0.467916297631E-01 -0.494179543393E-01 -0.521770516936E-01 -0.550742493999E-01 -0.581149550477E-01
 -0.613046425268E-01 -0.646488363850E-01 -0.681530941155E-01 -0.718229862252E-01 -0.756640739368E-01
 -0.796818843719E-01 -0.838818830621E-01 -0.882694436374E-01 -0.928498145421E-01 -0.976280826311E-01
 -0.102609133509E+00 -0.107797608474E+00 -0.113197857959E+00 -0.118813891337E+00 -0.124649323024E+00
 -0.130707314791E+00 -0.136990514236E+00 -0.143500989391E+00 -0.150240159472E+00 -0.157208721807E+00
 -0.164406575017E+00 -0.171832738572E+00 -0.179485268882E+00 -0.187361172153E+00 -0.195456314278E+00
 -0.203765328104E+00 -0.212281518527E+00 -0.220996765891E+00 -0.229901428344E+00 -0.238984243873E+00
 -0.248232232903E+00 -0.257630602502E+00 -0.267162653369E+00 -0.276809690987E+00 -0.286550942361E+00
 -0.296363479797E+00 -0.306222153012E+00 -0.316099530263E+00 -0.325965848577E+00 -0.335788971734E+00
 -0.345534353546E+00 -0.355165002783E+00 -0.364641446048E+00 -0.373921686322E+00 -0.382961158235E+00
 -0.391712686090E+00 -0.400126455902E+00 -0.408150016879E+00 -0.415728329302E+00 -0.422803872352E+00
 -0.429316818734E+00 -0.435205272001E+00 -0.440405554344E+00 -0.444852528783E+00 -0.448479942623E+00
 -0.451220786300E+00 -0.453007667368E+00 -0.453773203197E+00 -0.453450435530E+00 -0.451973268355E+00
 -0.449276928417E+00 -0.445298445794E+00 -0.439977151292E+00 -0.433255187099E+00 -0.425078027159E+00
 -0.415395004466E+00 -0.404159842239E+00 -0.391331186534E+00 -0.376873137777E+00 -0.360755778559E+00
 -0.342955694851E+00 -0.323456487549E+00 -0.302249270482E+00 -0.279333150658E+00 -0.254715685387E+00
 -0.228413310268E+00 -0.200451730530E+00 -0.170866267813E+00 -0.139702152575E+00 -0.107014752622E+00
 -0.728697275544E-01 -0.373430998875E-01 -0.521235601307E-03  0.374992699753E-01  0.766118008034E-01
  0.116700018437E+00  0.157638241895E+00  0.199291901700E+00  0.241518068741E+00  0.284166078996E+00
  0.327078310993E+00  0.370091227939E+00  0.413036857752E+00  0.455744924265E+00  0.498045727600E+00
  0.539773412610E+00  0.580768282790E+00  0.620875784904E+00  0.659940326738E+00  0.697795725163E+00
  0.734258704566E+00  0.769131461823E+00  0.802212104755E+00  0.833305795377E+00  0.862231394333E+00
  0.888823727757E+00  0.912933899067E+00  0.934429432555E+00  0.953194881827E+00  0.969132894427E+00
  0.982165499183E+00  0.992235357303E+00  0.999306768519E+00  0.100336630768E+01  0.100442303333E+01
  0.100250827235E+01  0.997675018181E+00  0.989996993480E+00  0.979567439520E+00  0.966497693634E+00
  0.950915604569E+00  0.932963838356E+00  0.912798123130E+00  0.890585456604E+00  0.866502319806E+00
  0.840732903579E+00  0.813467369092E+00  0.784900139488E+00  0.755228215538E+00  0.724649507087E+00
  0.693361158873E+00  0.661557861218E+00  0.629430136316E+00  0.597162609800E+00  0.564932290002E+00
  0.532906928013E+00  0.501243458720E+00  0.470086683689E+00  0.439568202965E+00  0.409805680948E+00
  0.380902477544E+00  0.352947650945E+00  0.326016307993E+00  0.300170250779E+00  0.275458847007E+00
  0.251920038634E+00  0.229581399161E+00  0.208461155074E+00  0.188569100977E+00  0.169907359797E+00
  0.152470966888E+00  0.136248286153E+00  0.121221292823E+00  0.107365776811E+00  0.946515292503E-01
  0.830425723572E-01  0.724974805649E-01  0.629698226975E-01  0.544087347694E-01  0.467596145173E-01
  0.399649144083E-01  0.339650006920E-01  0.286990420017E-01  0.241058912578E-01  0.201249280373E-01
  0.166968339963E-01  0.137642803452E-01  0.112725130113E-01  0.916982741956E-02  0.740793044972E-02
  0.594219188888E-02  0.473179153229E-02  0.373977098768E-02  0.293300127412E-02  0.228207855311E-02
 pseudo wavefunction
  0.949322754125E-08  0.101206577196E-07  0.107895562632E-07  0.115026639158E-07  0.122629025634E-07
  0.130733872065E-07  0.139374387234E-07  0.148585974772E-07  0.158406378221E-07  0.168875835685E-07
  0.180037244700E-07  0.191936338001E-07  0.204621870913E-07  0.218145821115E-07  0.232563601614E-07
  0.247934287797E-07  0.264320859486E-07  0.281790458988E-07  0.300414666206E-07  0.320269791933E-07
  0.341437190520E-07  0.364003593228E-07  0.388061463588E-07  0.413709376273E-07  0.441052420987E-07
  0.470202633068E-07  0.501279452535E-07  0.534410213484E-07  0.569730665826E-07  0.607385531508E-07
  0.647529097496E-07  0.690325847952E-07  0.735951138186E-07  0.784591913161E-07  0.836447473480E-07
  0.891730291995E-07  0.950666884399E-07  0.101349873735E-06  0.108048329792E-06  0.115189502849E-06
  0.122802653130E-06  0.130918974738E-06  0.139571723468E-06  0.148796353069E-06  0.158630660513E-06
  0.169114940864E-06  0.180292152382E-06  0.192208092539E-06  0.204911585673E-06  0.218454683038E-06
  0.232892876075E-06  0.248285323789E-06  0.264695095142E-06  0.282189427474E-06  0.300840001996E-06
  0.320723237502E-06  0.341920603483E-06  0.364518953939E-06  0.388610883254E-06  0.414295105595E-06
  0.441676859374E-06  0.470868338459E-06  0.501989151870E-06  0.535166813865E-06  0.570537266416E-06
  0.608245436214E-06  0.648445828489E-06  0.691303160077E-06  0.736993034328E-06  0.785702660620E-06
  0.837631621425E-06  0.892992690074E-06  0.952012702569E-06  0.101493348702E-05  0.108201285448E-05
  0.115352565535E-05  0.122976490546E-05  0.131104298675E-05  0.139769292712E-05  0.149006976507E-05
  0.158855200431E-05  0.169354316471E-05  0.180547343565E-05  0.192480143859E-05  0.205201610629E-05
  0.218763868610E-05  0.233222487565E-05  0.248636709980E-05  0.265069693796E-05  0.282588771188E-05
  0.301265724447E-05  0.321177080097E-05  0.342404422444E-05  0.365034727858E-05  0.389160721135E-05
  0.414881255422E-05  0.442301717247E-05  0.471534458315E-05  0.502699255846E-05  0.535923803333E-05
  0.571344233734E-05  0.609105677245E-05  0.649362855934E-05  0.692280717667E-05  0.738035111940E-05
  0.786813510369E-05  0.838815774798E-05  0.894254976166E-05  0.953358267495E-05  0.101636781457E-04
  0.108354178813E-04  0.115515542160E-04  0.123150213878E-04  0.131289475601E-04  0.139966676378E-04
  0.149217369309E-04  0.159079457200E-04  0.169593347858E-04  0.180802119634E-04  0.192751697912E-04
  0.205491043265E-04  0.219072352033E-04  0.233551270167E-04  0.248987121199E-04  0.265443149270E-04
  0.282986778227E-04  0.301689887835E-04  0.321629108238E-04  0.342886133879E-04  0.365548058163E-04
  0.389707730229E-04  0.415464135291E-04  0.442922800118E-04  0.472196225294E-04  0.503404346035E-04
  0.536675023459E-04  0.572144568296E-04  0.609958299212E-04  0.650271137995E-04  0.693248244075E-04
  0.739065690940E-04  0.787911187243E-04  0.839984845528E-04  0.895500001730E-04  0.954684088797E-04
  0.101777956800E-03  0.108504492175E-03  0.115675571195E-03  0.123320570828E-03  0.131470809091E-03
  0.140159673263E-03  0.149422756567E-03  0.159298003866E-03  0.169825866983E-03  0.181049470266E-03
  0.193014787078E-03  0.205770827941E-03  0.219369841081E-03  0.233867526213E-03  0.249323262419E-03
  0.265800351063E-03  0.283366274715E-03  0.302092973158E-03  0.322057137576E-03  0.343340524143E-03
  0.366030288277E-03  0.390219340904E-03  0.416006728205E-03  0.443498036363E-03  0.472805822961E-03
  0.504050076779E-03  0.537358707842E-03  0.572868069718E-03  0.610723516157E-03  0.651079994330E-03
  0.694102677060E-03  0.739967636588E-03  0.788862562582E-03  0.840987527292E-03  0.896555800898E-03
  0.955794720336E-03  0.101894661508E-02  0.108626979357E-02  0.115803959421E-02  0.123454950519E-02
  0.131611235746E-02  0.140306159571E-02  0.149575263234E-02  0.159456428970E-02  0.169990033639E-02
  0.181219112366E-02  0.193189532813E-02  0.205950180789E-02  0.219553157905E-02  0.234053992038E-02
  0.249511861438E-02  0.265989833307E-02  0.283555117796E-02  0.302279338371E-02  0.322238819574E-02
  0.343514893276E-02  0.366194224556E-02  0.390369158438E-02  0.416138088748E-02  0.443605850474E-02
  0.472884137039E-02  0.504091944006E-02  0.537356040804E-02  0.572811472152E-02  0.610602090941E-02
  0.650881124425E-02  0.693811775662E-02  0.739567862243E-02  0.788334494442E-02  0.840308795009E-02
  0.895700662925E-02  0.954733583553E-02  0.101764548768E-01  0.108468966206E-01  0.115613571417E-01
  0.123227059388E-01  0.131339967504E-01  0.139984789971E-01  0.149196098811E-01  0.159010671738E-01
  0.169467627192E-01  0.180608566867E-01  0.192477726008E-01  0.205122131782E-01  0.218591770008E-01
  0.232939760518E-01  0.248222541397E-01  0.264500062330E-01  0.281835987259E-01  0.300297906490E-01
  0.319957558376E-01  0.340891060597E-01  0.363179151034E-01  0.386907438104E-01  0.412166660354E-01
  0.439052954959E-01  0.467668134660E-01  0.498119972483E-01  0.530522493402E-01  0.564996271879E-01
  0.601668733965E-01  0.640674462330E-01  0.682155502274E-01  0.726261666365E-01  0.773150834915E-01
  0.822989249006E-01  0.875951792194E-01  0.932222256414E-01  0.991993586840E-01  0.105546809969E+00
  0.112285766603E+00  0.119438385365E+00  0.127027801794E+00  0.135078133150E+00  0.143614474080E+00
  0.152662883674E+00  0.162250362439E+00  0.172404817533E+00  0.183155014406E+00  0.194530512822E+00
  0.206561584969E+00  0.219279113180E+00  0.232714464538E+00  0.246899339368E+00  0.261865590431E+00
  0.277645009320E+00  0.294269076406E+00  0.311768670394E+00  0.330173733439E+00  0.349512887580E+00
  0.369812998225E+00  0.391098680401E+00  0.413391743615E+00  0.436710571437E+00  0.461069432343E+00
  0.486477718985E+00  0.512939113975E+00  0.540450681460E+00  0.569001885335E+00  0.598573536923E+00
  0.629136677410E+00  0.660651403367E+00  0.693065647246E+00  0.726313929061E+00  0.760316100401E+00
  0.794976107596E+00  0.830180807236E+00  0.865798874248E+00  0.901679850249E+00  0.937653387741E+00
  0.973528753517E+00  0.100909466207E+01  0.104411951616E+01  0.107835213614E+01  0.111152306149E+01
  0.114334650538E+01  0.117352303540E+01  0.120174303766E+01  0.122769099733E+01  0.125105059168E+01
  0.127151054192E+01  0.128877110390E+01  0.130255099418E+01  0.131259444621E+01  0.131867797188E+01
  0.132061626927E+01  0.131826657418E+01  0.131153061019E+01  0.130035316571E+01  0.128471623668E+01
  0.126462765139E+01  0.124010317397E+01  0.121114131230E+01  0.117769048454E+01  0.113960888020E+01
  0.109665770965E+01  0.104880828879E+01  0.996189292695E+00  0.938942443187E+00  0.000000000000E+00
  0.000000000000E+00  0.000000000000E+00  0.000000000000E+00  0.000000000000E+00  0.000000000000E+00
  0.000000000000E+00  0.000000000000E+00  0.000000000000E+00  0.000000000000E+00  0.000000000000E+00
  0.000000000000E+00  0.000000000000E+00  0.000000000000E+00  0.000000000000E+00  0.000000000000E+00
  0.000000000000E+00  0.000000000000E+00  0.000000000000E+00  0.000000000000E+00  0.000000000000E+00
  0.000000000000E+00  0.000000000000E+00  0.000000000000E+00  0.000000000000E+00  0.000000000000E+00
  0.000000000000E+00  0.000000000000E+00  0.000000000000E+00  0.000000000000E+00  0.000000000000E+00
  0.000000000000E+00  0.000000000000E+00  0.000000000000E+00  0.000000000000E+00  0.000000000000E+00
  0.000000000000E+00  0.000000000000E+00  0.000000000000E+00  0.000000000000E+00  0.000000000000E+00
  0.000000000000E+00  0.000000000000E+00  0.000000000000E+00  0.000000000000E+00  0.000000000000E+00
  0.000000000000E+00  0.000000000000E+00  0.000000000000E+00  0.000000000000E+00  0.000000000000E+00
 ae wavefunction
 -0.622189143390E-06 -0.659970896281E-06 -0.699852829513E-06 -0.741963237498E-06 -0.786437784926E-06
 -0.833419970266E-06 -0.883061618416E-06 -0.935523393370E-06 -0.990975358700E-06 -0.104959755503E-05
 -0.111158062668E-05 -0.117712648037E-05 -0.124644898485E-05 -0.131977471529E-05 -0.139734374661E-05
 -0.147941048955E-05 -0.156624458588E-05 -0.165813185676E-05 -0.175537530940E-05 -0.185829620861E-05
 -0.196723521681E-05 -0.208255360386E-05 -0.220463453334E-05 -0.233388443232E-05 -0.247073444537E-05
 -0.261564198249E-05 -0.276909236421E-05 -0.293160057190E-05 -0.310371310903E-05 -0.328600998188E-05
 -0.347910680400E-05 -0.368365703963E-05 -0.390035438503E-05 -0.412993530646E-05 -0.437318173809E-05
 -0.463092395399E-05 -0.490404362376E-05 -0.519347706440E-05 -0.550021870087E-05 -0.582532474940E-05
 -0.616991713737E-05 -0.653518767489E-05 -0.692240249594E-05 -0.733290678512E-05 -0.776812980837E-05
 -0.822959026895E-05 -0.871890200811E-05 -0.923778007361E-05 -0.978804717860E-05 -0.103716405819E-04
 -0.109906194058E-04 -0.116471724289E-04 -0.123436263873E-04 -0.130824548005E-04 -0.138662873815E-04
 -0.146979200383E-04 -0.155803255378E-04 -0.165166648444E-04 -0.175102992003E-04 -0.185648029796E-04
 -0.196839773743E-04 -0.208718649655E-04 -0.221327652308E-04 -0.234712510538E-04 -0.248921862999E-04
 -0.264007445195E-04 -0.280024288725E-04 -0.297030933001E-04 -0.315089651204E-04 -0.334266690074E-04
 -0.354632525628E-04 -0.376262135224E-04 -0.399235287060E-04 -0.423636848099E-04 -0.449557112159E-04
 -0.477092148710E-04 -0.506344174242E-04 -0.537421947282E-04 -0.570441188837E-04 -0.605525029628E-04
 -0.642804486126E-04 -0.682418966582E-04 -0.724516809980E-04 -0.769255858807E-04 -0.816804068619E-04
 -0.867340156291E-04 -0.921054289652E-04 -0.978148820727E-04 -0.103883906577E-03 -0.110335413445E-03
 -0.117193781188E-03 -0.124484949615E-03 -0.132236519532E-03 -0.140477858711E-03 -0.149240214552E-03
 -0.158556833829E-03 -0.168463089950E-03 -0.178996618219E-03 -0.190197459555E-03 -0.202108213196E-03
 -0.214774198959E-03 -0.228243629580E-03 -0.242567793794E-03 -0.257801250787E-03 -0.274002036669E-03
 -0.291231883727E-03 -0.309556453249E-03 -0.329045582600E-03 -0.349773547532E-03 -0.371819340562E-03
 -0.395266966332E-03 -0.420205755030E-03 -0.446730694803E-03 -0.474942784358E-03 -0.504949406912E-03
 -0.536864726569E-03 -0.570810108652E-03 -0.606914565080E-03 -0.645315226388E-03 -0.686157841803E-03
 -0.729597308900E-03 -0.775798234575E-03 -0.824935528921E-03 -0.877195033884E-03 -0.932774188553E-03
 -0.991882732983E-03 -0.105474345268E-02 -0.112159296579E-02 -0.119268255528E-02 -0.126827904838E-02
 -0.134866574566E-02 -0.143414340225E-02 -0.152503126386E-02 -0.162166816012E-02 -0.172441365810E-02
 -0.183364927884E-02 -0.194977977983E-02 -0.207323450640E-02 -0.220446881517E-02 -0.234396557271E-02
 -0.249223673265E-02 -0.264982499444E-02 -0.281730554724E-02 -0.299528790219E-02 -0.318441781654E-02
 -0.338537931290E-02 -0.359889679727E-02 -0.382573727891E-02 -0.406671269558E-02 -0.432268234733E-02
 -0.459455544192E-02 -0.488329375500E-02 -0.518991440768E-02 -0.551549276434E-02 -0.586116545288E-02
 -0.622813350944E-02 -0.661766564944E-02 -0.703110166603E-02 -0.746985595686E-02 -0.793542117931E-02
 -0.842937203381E-02 -0.895336917403E-02 -0.950916324210E-02 -0.100985990257E-01 -0.107236197336E-01
 -0.113862713837E-01 -0.120887072979E-01 -0.128331926962E-01 -0.136221093793E-01 -0.144579604898E-01
 -0.153433753387E-01 -0.162811142815E-01 -0.172740736264E-01 -0.183252905554E-01 -0.194379480343E-01
 -0.206153796866E-01 -0.218610746020E-01 -0.231786820471E-01 -0.245720160418E-01 -0.260450597612E-01
 -0.276019697181E-01 -0.292470796770E-01 -0.309849042450E-01 -0.328201420804E-01 -0.347576786530E-01
 -0.368025884855E-01 -0.389601367993E-01 -0.412357804785E-01 -0.436351682639E-01 -0.461641400776E-01
 -0.488287253717E-01 -0.516351403914E-01 -0.545897842266E-01 -0.576992335279E-01 -0.609702357449E-01
 -0.644097007460E-01 -0.680246906603E-01 -0.718224077858E-01 -0.758101803875E-01 -0.799954462126E-01
 -0.843857335345E-01 -0.889886395357E-01 -0.938118058305E-01 -0.988628909250E-01 -0.104149539407E+00
 -0.109679347658E+00 -0.115459825873E+00 -0.121498356179E+00 -0.127802146651E+00 -0.134378181011E+00
 -0.141233163829E+00 -0.148373461031E+00 -0.155805035554E+00 -0.163533377992E+00 -0.171563432104E+00
 -0.179899515080E+00 -0.188545232498E+00 -0.197503387930E+00 -0.206775887197E+00 -0.216363637340E+00
 -0.226266440388E+00 -0.236482882102E+00 -0.247010215914E+00 -0.257844242355E+00 -0.268979184376E+00
 -0.280407559009E+00 -0.292120045974E+00 -0.304105353937E+00 -0.316350085257E+00 -0.328838600259E+00
 -0.341552882237E+00 -0.354472404613E+00 -0.367574001905E+00 -0.380831746366E+00 -0.394216832294E+00
 -0.407697469994E+00 -0.421238791185E+00 -0.434802766820E+00 -0.448348137397E+00 -0.461830354006E+00
 -0.475201526651E+00 -0.488410374923E+00 -0.501402175934E+00 -0.514118706427E+00 -0.526498180561E+00
 -0.538475191693E+00 -0.549980673728E+00 -0.560941903274E+00 -0.571282565985E+00 -0.580922905752E+00
 -0.589779966207E+00 -0.597767918925E+00 -0.604798461592E+00 -0.610781264099E+00 -0.615624444604E+00
 -0.619235067612E+00 -0.621519663809E+00 -0.622384776694E+00 -0.621737540438E+00 -0.619486291092E+00
 -0.615541210337E+00 -0.609814998386E+00 -0.602223571695E+00 -0.592686780780E+00 -0.581129143417E+00
 -0.567480589539E+00 -0.551677213854E+00 -0.533662032952E+00 -0.513385743651E+00 -0.490807479052E+00
 -0.465895558562E+00 -0.438628227762E+00 -0.408994382908E+00 -0.376994274340E+00 -0.342640181480E+00
 -0.305957051171E+00 -0.266983088995E+00 -0.225770292664E+00 -0.182384913883E+00 -0.136907835557E+00
 -0.894348501678E-01 -0.400768265781E-01  0.110402447828E-01  0.637753339885E-01  0.117972580750E+00
  0.173461624007E+00  0.230058041059E+00  0.287563886625E+00  0.345768333829E+00  0.404448447852E+00
  0.463370173098E+00  0.522289691086E+00  0.580955390184E+00  0.639110741224E+00  0.696498207271E+00
  0.752863672422E+00  0.807959512769E+00  0.861543023009E+00  0.913367704986E+00  0.963169996476E+00
  0.101066037269E+01  0.105552706772E+01  0.109745062463E+01  0.113611930597E+01  0.117123823165E+01
  0.120253248653E+01  0.122974756958E+01  0.125264964041E+01  0.127102641637E+01  0.128468869128E+01
  0.129347214312E+01  0.129723906855E+01  0.129587975619E+01  0.128931332805E+01  0.127748797092E+01
  0.126038056419E+01  0.123799575521E+01  0.121036454995E+01  0.117754250039E+01  0.113960756600E+01
  0.109665770965E+01  0.104880828879E+01  0.996189292695E+00  0.938942443187E+00  0.000000000000E+00
  0.000000000000E+00  0.000000000000E+00  0.000000000000E+00  0.000000000000E+00  0.000000000000E+00
  0.000000000000E+00  0.000000000000E+00  0.000000000000E+00  0.000000000000E+00  0.000000000000E+00
  0.000000000000E+00  0.000000000000E+00  0.000000000000E+00  0.000000000000E+00  0.000000000000E+00
  0.000000000000E+00  0.000000000000E+00  0.000000000000E+00  0.000000000000E+00  0.000000000000E+00
  0.000000000000E+00  0.000000000000E+00  0.000000000000E+00  0.000000000000E+00  0.000000000000E+00
  0.000000000000E+00  0.000000000000E+00  0.000000000000E+00  0.000000000000E+00  0.000000000000E+00
  0.000000000000E+00  0.000000000000E+00  0.000000000000E+00  0.000000000000E+00  0.000000000000E+00
  0.000000000000E+00  0.000000000000E+00  0.000000000000E+00  0.000000000000E+00  0.000000000000E+00
  0.000000000000E+00  0.000000000000E+00  0.000000000000E+00  0.000000000000E+00  0.000000000000E+00
  0.000000000000E+00  0.000000000000E+00  0.000000000000E+00  0.000000000000E+00  0.000000000000E+00
 End of Dataset
