<?xml version="1.0" encoding="ISO-8859-1"?>
<modeling>
 <generator>
  <i name="program" type="string">vasp </i>
  <i name="version" type="string">5.4.4.18Apr17-6-g9f103f2a35  </i>
  <i name="subversion" type="string">(build Nov 02 2021 22:31:34) complex            parallel </i>
  <i name="platform" type="string">LinuxIFC </i>
  <i name="date" type="string">2025 07 01 </i>
  <i name="time" type="string">08:04:03 </i>
 </generator>
 <incar>
  <i type="int" name="ISTART">     0</i>
  <i type="string" name="PREC">accurate</i>
  <i type="int" name="NSIM">     4</i>
  <i type="logical" name="ADDGRID"> T  </i>
  <i type="int" name="ICHARG">     2</i>
  <i type="int" name="IBRION">     2</i>
  <i name="EDIFF">      0.00000001</i>
  <i type="int" name="NSW">     1</i>
  <i name="ENCUT">    450.00000000</i>
  <i type="int" name="ISMEAR">     1</i>
  <i name="SIGMA">      0.10000000</i>
  <i type="int" name="LMAXMIX">     2</i>
  <i type="logical" name="LWAVE"> T  </i>
  <v type="int" name="KPOINT_BSE">    -1     0     0     0</v>
  <i type="logical" name="LDAU"> T  </i>
  <v type="int" name="LDAUTYPE">     2</v>
  <v type="int" name="LDAUL">     2    -1    -1</v>
  <v name="LDAUU">      2.00000000      0.00000000      0.00000000</v>
  <v name="LDAUJ">      0.00000000      0.00000000      0.00000000</v>
 </incar>
 <structure name="primitive_cell" >
  <crystal>
   <varray name="basis" >
    <v>       4.18247445       0.00000000       0.04408670 </v>
    <v>       0.00000000       6.78794518       0.00000000 </v>
    <v>      -2.63378168       0.00000000       7.88454898 </v>
   </varray>
   <i name="volume">    224.63373727 </i>
   <varray name="rec_basis" >
    <v>       0.23825400       0.00000000       0.07958718 </v>
    <v>       0.00000000       0.14731999       0.00000000 </v>
    <v>      -0.00133220       0.00000000       0.12638532 </v>
   </varray>
  </crystal>
  <varray name="positions" >
   <v>      -0.43751143       0.47540865      -0.17126927 </v>
   <v>       0.17951603      -0.24010079      -0.14748910 </v>
   <v>      -0.17951600       0.25989921      -0.35251090 </v>
   <v>      -0.19104486       0.25285123       0.14060502 </v>
   <v>       0.32633889      -0.47633647       0.12475047 </v>
   <v>      -0.19339484      -0.36005651      -0.44208375 </v>
   <v>       0.19339481       0.13994351      -0.05791625 </v>
   <v>      -0.22496517      -0.15176610       0.05074838 </v>
   <v>       0.22496514       0.34823390       0.44925162 </v>
   <v>       0.43751143      -0.02459138      -0.32873073 </v>
   <v>       0.19104489      -0.24714876       0.35939499 </v>
   <v>      -0.32633889       0.02366350       0.37524953 </v>
  </varray>
 </structure>
 <varray name="primitive_index" >
  <v type="int" >        1 </v>
  <v type="int" >       11 </v>
  <v type="int" >       12 </v>
  <v type="int" >        9 </v>
  <v type="int" >        2 </v>
  <v type="int" >        6 </v>
  <v type="int" >        7 </v>
  <v type="int" >        8 </v>
  <v type="int" >        3 </v>
  <v type="int" >        4 </v>
  <v type="int" >       10 </v>
  <v type="int" >        5 </v>
 </varray>
 <kpoints>
  <generation param="Gamma">
   <v type="int" name="divisions">      13        7        6 </v>
   <v name="usershift">      0.00000000       0.00000000       0.00000000 </v>
   <v name="genvec1">      0.07692308       0.00000000       0.00000000 </v>
   <v name="genvec2">      0.00000000       0.14285714       0.00000000 </v>
   <v name="genvec3">      0.00000000       0.00000000       0.16666667 </v>
   <v name="shift">      0.00000000       0.00000000       0.00000000 </v>
  </generation>
  <varray name="kpointlist" >
   <v>       0.00000000       0.00000000       0.00000000 </v>
   <v>       0.07692308       0.00000000       0.00000000 </v>
   <v>       0.15384615       0.00000000       0.00000000 </v>
   <v>       0.23076923       0.00000000       0.00000000 </v>
   <v>       0.30769231       0.00000000       0.00000000 </v>
   <v>       0.38461538       0.00000000       0.00000000 </v>
   <v>       0.46153846       0.00000000       0.00000000 </v>
   <v>       0.00000000       0.14285714       0.00000000 </v>
   <v>       0.07692308       0.14285714       0.00000000 </v>
   <v>       0.15384615       0.14285714       0.00000000 </v>
   <v>       0.23076923       0.14285714       0.00000000 </v>
   <v>       0.30769231       0.14285714       0.00000000 </v>
   <v>       0.38461538       0.14285714       0.00000000 </v>
   <v>       0.46153846       0.14285714       0.00000000 </v>
   <v>       0.00000000       0.28571429       0.00000000 </v>
   <v>       0.07692308       0.28571429       0.00000000 </v>
   <v>       0.15384615       0.28571429       0.00000000 </v>
   <v>       0.23076923       0.28571429       0.00000000 </v>
   <v>       0.30769231       0.28571429       0.00000000 </v>
   <v>       0.38461538       0.28571429       0.00000000 </v>
   <v>       0.46153846       0.28571429       0.00000000 </v>
   <v>       0.00000000       0.42857143       0.00000000 </v>
   <v>       0.07692308       0.42857143       0.00000000 </v>
   <v>       0.15384615       0.42857143       0.00000000 </v>
   <v>       0.23076923       0.42857143       0.00000000 </v>
   <v>       0.30769231       0.42857143       0.00000000 </v>
   <v>       0.38461538       0.42857143       0.00000000 </v>
   <v>       0.46153846       0.42857143       0.00000000 </v>
   <v>       0.00000000       0.00000000       0.16666667 </v>
   <v>       0.07692308       0.00000000       0.16666667 </v>
   <v>       0.15384615       0.00000000       0.16666667 </v>
   <v>       0.23076923       0.00000000       0.16666667 </v>
   <v>       0.30769231       0.00000000       0.16666667 </v>
   <v>       0.38461538       0.00000000       0.16666667 </v>
   <v>       0.46153846       0.00000000       0.16666667 </v>
   <v>      -0.46153846       0.00000000       0.16666667 </v>
   <v>      -0.38461538       0.00000000       0.16666667 </v>
   <v>      -0.30769231       0.00000000       0.16666667 </v>
   <v>      -0.23076923       0.00000000       0.16666667 </v>
   <v>      -0.15384615       0.00000000       0.16666667 </v>
   <v>      -0.07692308       0.00000000       0.16666667 </v>
   <v>       0.00000000       0.14285714       0.16666667 </v>
   <v>       0.07692308       0.14285714       0.16666667 </v>
   <v>       0.15384615       0.14285714       0.16666667 </v>
   <v>       0.23076923       0.14285714       0.16666667 </v>
   <v>       0.30769231       0.14285714       0.16666667 </v>
   <v>       0.38461538       0.14285714       0.16666667 </v>
   <v>       0.46153846       0.14285714       0.16666667 </v>
   <v>      -0.46153846       0.14285714       0.16666667 </v>
   <v>      -0.38461538       0.14285714       0.16666667 </v>
   <v>      -0.30769231       0.14285714       0.16666667 </v>
   <v>      -0.23076923       0.14285714       0.16666667 </v>
   <v>      -0.15384615       0.14285714       0.16666667 </v>
   <v>      -0.07692308       0.14285714       0.16666667 </v>
   <v>       0.00000000       0.28571429       0.16666667 </v>
   <v>       0.07692308       0.28571429       0.16666667 </v>
   <v>       0.15384615       0.28571429       0.16666667 </v>
   <v>       0.23076923       0.28571429       0.16666667 </v>
   <v>       0.30769231       0.28571429       0.16666667 </v>
   <v>       0.38461538       0.28571429       0.16666667 </v>
   <v>       0.46153846       0.28571429       0.16666667 </v>
   <v>      -0.46153846       0.28571429       0.16666667 </v>
   <v>      -0.38461538       0.28571429       0.16666667 </v>
   <v>      -0.30769231       0.28571429       0.16666667 </v>
   <v>      -0.23076923       0.28571429       0.16666667 </v>
   <v>      -0.15384615       0.28571429       0.16666667 </v>
   <v>      -0.07692308       0.28571429       0.16666667 </v>
   <v>       0.00000000       0.42857143       0.16666667 </v>
   <v>       0.07692308       0.42857143       0.16666667 </v>
   <v>       0.15384615       0.42857143       0.16666667 </v>
   <v>       0.23076923       0.42857143       0.16666667 </v>
   <v>       0.30769231       0.42857143       0.16666667 </v>
   <v>       0.38461538       0.42857143       0.16666667 </v>
   <v>       0.46153846       0.42857143       0.16666667 </v>
   <v>      -0.46153846       0.42857143       0.16666667 </v>
   <v>      -0.38461538       0.42857143       0.16666667 </v>
   <v>      -0.30769231       0.42857143       0.16666667 </v>
   <v>      -0.23076923       0.42857143       0.16666667 </v>
   <v>      -0.15384615       0.42857143       0.16666667 </v>
   <v>      -0.07692308       0.42857143       0.16666667 </v>
   <v>       0.00000000       0.00000000       0.33333333 </v>
   <v>       0.07692308       0.00000000       0.33333333 </v>
   <v>       0.15384615       0.00000000       0.33333333 </v>
   <v>       0.23076923       0.00000000       0.33333333 </v>
   <v>       0.30769231       0.00000000       0.33333333 </v>
   <v>       0.38461538       0.00000000       0.33333333 </v>
   <v>       0.46153846       0.00000000       0.33333333 </v>
   <v>      -0.46153846       0.00000000       0.33333333 </v>
   <v>      -0.38461538       0.00000000       0.33333333 </v>
   <v>      -0.30769231       0.00000000       0.33333333 </v>
   <v>      -0.23076923       0.00000000       0.33333333 </v>
   <v>      -0.15384615       0.00000000       0.33333333 </v>
   <v>      -0.07692308       0.00000000       0.33333333 </v>
   <v>       0.00000000       0.14285714       0.33333333 </v>
   <v>       0.07692308       0.14285714       0.33333333 </v>
   <v>       0.15384615       0.14285714       0.33333333 </v>
   <v>       0.23076923       0.14285714       0.33333333 </v>
   <v>       0.30769231       0.14285714       0.33333333 </v>
   <v>       0.38461538       0.14285714       0.33333333 </v>
   <v>       0.46153846       0.14285714       0.33333333 </v>
   <v>      -0.46153846       0.14285714       0.33333333 </v>
   <v>      -0.38461538       0.14285714       0.33333333 </v>
   <v>      -0.30769231       0.14285714       0.33333333 </v>
   <v>      -0.23076923       0.14285714       0.33333333 </v>
   <v>      -0.15384615       0.14285714       0.33333333 </v>
   <v>      -0.07692308       0.14285714       0.33333333 </v>
   <v>       0.00000000       0.28571429       0.33333333 </v>
   <v>       0.07692308       0.28571429       0.33333333 </v>
   <v>       0.15384615       0.28571429       0.33333333 </v>
   <v>       0.23076923       0.28571429       0.33333333 </v>
   <v>       0.30769231       0.28571429       0.33333333 </v>
   <v>       0.38461538       0.28571429       0.33333333 </v>
   <v>       0.46153846       0.28571429       0.33333333 </v>
   <v>      -0.46153846       0.28571429       0.33333333 </v>
   <v>      -0.38461538       0.28571429       0.33333333 </v>
   <v>      -0.30769231       0.28571429       0.33333333 </v>
   <v>      -0.23076923       0.28571429       0.33333333 </v>
   <v>      -0.15384615       0.28571429       0.33333333 </v>
   <v>      -0.07692308       0.28571429       0.33333333 </v>
   <v>       0.00000000       0.42857143       0.33333333 </v>
   <v>       0.07692308       0.42857143       0.33333333 </v>
   <v>       0.15384615       0.42857143       0.33333333 </v>
   <v>       0.23076923       0.42857143       0.33333333 </v>
   <v>       0.30769231       0.42857143       0.33333333 </v>
   <v>       0.38461538       0.42857143       0.33333333 </v>
   <v>       0.46153846       0.42857143       0.33333333 </v>
   <v>      -0.46153846       0.42857143       0.33333333 </v>
   <v>      -0.38461538       0.42857143       0.33333333 </v>
   <v>      -0.30769231       0.42857143       0.33333333 </v>
   <v>      -0.23076923       0.42857143       0.33333333 </v>
   <v>      -0.15384615       0.42857143       0.33333333 </v>
   <v>      -0.07692308       0.42857143       0.33333333 </v>
   <v>       0.00000000       0.00000000       0.50000000 </v>
   <v>       0.07692308       0.00000000       0.50000000 </v>
   <v>       0.15384615       0.00000000       0.50000000 </v>
   <v>       0.23076923       0.00000000       0.50000000 </v>
   <v>       0.30769231       0.00000000       0.50000000 </v>
   <v>       0.38461538       0.00000000       0.50000000 </v>
   <v>       0.46153846       0.00000000       0.50000000 </v>
   <v>       0.00000000       0.14285714       0.50000000 </v>
   <v>       0.07692308       0.14285714       0.50000000 </v>
   <v>       0.15384615       0.14285714       0.50000000 </v>
   <v>       0.23076923       0.14285714       0.50000000 </v>
   <v>       0.30769231       0.14285714       0.50000000 </v>
   <v>       0.38461538       0.14285714       0.50000000 </v>
   <v>       0.46153846       0.14285714       0.50000000 </v>
   <v>       0.00000000       0.28571429       0.50000000 </v>
   <v>       0.07692308       0.28571429       0.50000000 </v>
   <v>       0.15384615       0.28571429       0.50000000 </v>
   <v>       0.23076923       0.28571429       0.50000000 </v>
   <v>       0.30769231       0.28571429       0.50000000 </v>
   <v>       0.38461538       0.28571429       0.50000000 </v>
   <v>       0.46153846       0.28571429       0.50000000 </v>
   <v>       0.00000000       0.42857143       0.50000000 </v>
   <v>       0.07692308       0.42857143       0.50000000 </v>
   <v>       0.15384615       0.42857143       0.50000000 </v>
   <v>       0.23076923       0.42857143       0.50000000 </v>
   <v>       0.30769231       0.42857143       0.50000000 </v>
   <v>       0.38461538       0.42857143       0.50000000 </v>
   <v>       0.46153846       0.42857143       0.50000000 </v>
  </varray>
  <varray name="weights" >
   <v>       0.00183150 </v>
   <v>       0.00366300 </v>
   <v>       0.00366300 </v>
   <v>       0.00366300 </v>
   <v>       0.00366300 </v>
   <v>       0.00366300 </v>
   <v>       0.00366300 </v>
   <v>       0.00366300 </v>
   <v>       0.00732601 </v>
   <v>       0.00732601 </v>
   <v>       0.00732601 </v>
   <v>       0.00732601 </v>
   <v>       0.00732601 </v>
   <v>       0.00732601 </v>
   <v>       0.00366300 </v>
   <v>       0.00732601 </v>
   <v>       0.00732601 </v>
   <v>       0.00732601 </v>
   <v>       0.00732601 </v>
   <v>       0.00732601 </v>
   <v>       0.00732601 </v>
   <v>       0.00366300 </v>
   <v>       0.00732601 </v>
   <v>       0.00732601 </v>
   <v>       0.00732601 </v>
   <v>       0.00732601 </v>
   <v>       0.00732601 </v>
   <v>       0.00732601 </v>
   <v>       0.00366300 </v>
   <v>       0.00366300 </v>
   <v>       0.00366300 </v>
   <v>       0.00366300 </v>
   <v>       0.00366300 </v>
   <v>       0.00366300 </v>
   <v>       0.00366300 </v>
   <v>       0.00366300 </v>
   <v>       0.00366300 </v>
   <v>       0.00366300 </v>
   <v>       0.00366300 </v>
   <v>       0.00366300 </v>
   <v>       0.00366300 </v>
   <v>       0.00732601 </v>
   <v>       0.00732601 </v>
   <v>       0.00732601 </v>
   <v>       0.00732601 </v>
   <v>       0.00732601 </v>
   <v>       0.00732601 </v>
   <v>       0.00732601 </v>
   <v>       0.00732601 </v>
   <v>       0.00732601 </v>
   <v>       0.00732601 </v>
   <v>       0.00732601 </v>
   <v>       0.00732601 </v>
   <v>       0.00732601 </v>
   <v>       0.00732601 </v>
   <v>       0.00732601 </v>
   <v>       0.00732601 </v>
   <v>       0.00732601 </v>
   <v>       0.00732601 </v>
   <v>       0.00732601 </v>
   <v>       0.00732601 </v>
   <v>       0.00732601 </v>
   <v>       0.00732601 </v>
   <v>       0.00732601 </v>
   <v>       0.00732601 </v>
   <v>       0.00732601 </v>
   <v>       0.00732601 </v>
   <v>       0.00732601 </v>
   <v>       0.00732601 </v>
   <v>       0.00732601 </v>
   <v>       0.00732601 </v>
   <v>       0.00732601 </v>
   <v>       0.00732601 </v>
   <v>       0.00732601 </v>
   <v>       0.00732601 </v>
   <v>       0.00732601 </v>
   <v>       0.00732601 </v>
   <v>       0.00732601 </v>
   <v>       0.00732601 </v>
   <v>       0.00732601 </v>
   <v>       0.00366300 </v>
   <v>       0.00366300 </v>
   <v>       0.00366300 </v>
   <v>       0.00366300 </v>
   <v>       0.00366300 </v>
   <v>       0.00366300 </v>
   <v>       0.00366300 </v>
   <v>       0.00366300 </v>
   <v>       0.00366300 </v>
   <v>       0.00366300 </v>
   <v>       0.00366300 </v>
   <v>       0.00366300 </v>
   <v>       0.00366300 </v>
   <v>       0.00732601 </v>
   <v>       0.00732601 </v>
   <v>       0.00732601 </v>
   <v>       0.00732601 </v>
   <v>       0.00732601 </v>
   <v>       0.00732601 </v>
   <v>       0.00732601 </v>
   <v>       0.00732601 </v>
   <v>       0.00732601 </v>
   <v>       0.00732601 </v>
   <v>       0.00732601 </v>
   <v>       0.00732601 </v>
   <v>       0.00732601 </v>
   <v>       0.00732601 </v>
   <v>       0.00732601 </v>
   <v>       0.00732601 </v>
   <v>       0.00732601 </v>
   <v>       0.00732601 </v>
   <v>       0.00732601 </v>
   <v>       0.00732601 </v>
   <v>       0.00732601 </v>
   <v>       0.00732601 </v>
   <v>       0.00732601 </v>
   <v>       0.00732601 </v>
   <v>       0.00732601 </v>
   <v>       0.00732601 </v>
   <v>       0.00732601 </v>
   <v>       0.00732601 </v>
   <v>       0.00732601 </v>
   <v>       0.00732601 </v>
   <v>       0.00732601 </v>
   <v>       0.00732601 </v>
   <v>       0.00732601 </v>
   <v>       0.00732601 </v>
   <v>       0.00732601 </v>
   <v>       0.00732601 </v>
   <v>       0.00732601 </v>
   <v>       0.00732601 </v>
   <v>       0.00732601 </v>
   <v>       0.00183150 </v>
   <v>       0.00366300 </v>
   <v>       0.00366300 </v>
   <v>       0.00366300 </v>
   <v>       0.00366300 </v>
   <v>       0.00366300 </v>
   <v>       0.00366300 </v>
   <v>       0.00366300 </v>
   <v>       0.00732601 </v>
   <v>       0.00732601 </v>
   <v>       0.00732601 </v>
   <v>       0.00732601 </v>
   <v>       0.00732601 </v>
   <v>       0.00732601 </v>
   <v>       0.00366300 </v>
   <v>       0.00732601 </v>
   <v>       0.00732601 </v>
   <v>       0.00732601 </v>
   <v>       0.00732601 </v>
   <v>       0.00732601 </v>
   <v>       0.00732601 </v>
   <v>       0.00366300 </v>
   <v>       0.00732601 </v>
   <v>       0.00732601 </v>
   <v>       0.00732601 </v>
   <v>       0.00732601 </v>
   <v>       0.00732601 </v>
   <v>       0.00732601 </v>
  </varray>
 </kpoints>
 <parameters>
  <separator name="general" >
   <i type="string" name="SYSTEM">unknown system</i>
   <i type="logical" name="LCOMPAT"> F  </i>
  </separator>
  <separator name="electronic" >
   <i type="string" name="PREC">accura</i>
   <i name="ENMAX">    450.00000000</i>
   <i name="ENAUG">    446.84200000</i>
   <i name="EDIFF">      0.00000001</i>
   <i type="int" name="IALGO">    38</i>
   <i type="int" name="IWAVPR">    11</i>
   <i type="int" name="NBANDS">    68</i>
   <i name="NELECT">    112.00000000</i>
   <i type="int" name="TURBO">     0</i>
   <i type="int" name="IRESTART">     0</i>
   <i type="int" name="NREBOOT">     0</i>
   <i type="int" name="NMIN">     0</i>
   <i name="EREF">      0.00000000</i>
   <separator name="electronic smearing" >
    <i type="int" name="ISMEAR">     1</i>
    <i name="SIGMA">      0.10000000</i>
    <i name="KSPACING">      0.50000000</i>
    <i type="logical" name="KGAMMA"> T  </i>
   </separator>
   <separator name="electronic projectors" >
    <i type="logical" name="LREAL"> F  </i>
    <v name="ROPT">      0.00000000      0.00000000      0.00000000</v>
    <i type="int" name="LMAXPAW">  -100</i>
    <i type="int" name="LMAXMIX">     2</i>
    <i type="logical" name="NLSPLINE"> F  </i>
   </separator>
   <separator name="electronic startup" >
    <i type="int" name="ISTART">     0</i>
    <i type="int" name="ICHARG">     2</i>
    <i type="int" name="INIWAV">     1</i>
   </separator>
   <separator name="electronic spin" >
    <i type="int" name="ISPIN">     1</i>
    <i type="logical" name="LNONCOLLINEAR"> F  </i>
    <v name="MAGMOM">      1.00000000      1.00000000      1.00000000      1.00000000      1.00000000      1.00000000      1.00000000      1.00000000      1.00000000      1.00000000      1.00000000      1.00000000</v>
    <i name="NUPDOWN">     -1.00000000</i>
    <i type="logical" name="LSORBIT"> F  </i>
    <v name="SAXIS">      0.00000000      0.00000000      1.00000000</v>
    <i type="logical" name="LSPIRAL"> F  </i>
    <v name="QSPIRAL">      0.00000000      0.00000000      0.00000000</v>
    <i type="logical" name="LZEROZ"> F  </i>
   </separator>
   <separator name="electronic exchange-correlation" >
    <i type="logical" name="LASPH"> F  </i>
    <i type="logical" name="LMETAGGA"> F  </i>
   </separator>
   <separator name="electronic convergence" >
    <i type="int" name="NELM">    60</i>
    <i type="int" name="NELMDL">    -5</i>
    <i type="int" name="NELMIN">     2</i>
    <i name="ENINI">    450.00000000</i>
    <separator name="electronic convergence detail" >
     <i type="logical" name="LDIAG"> T  </i>
     <i type="logical" name="LSUBROT"> F  </i>
     <i name="WEIMIN">      0.00100000</i>
     <i name="EBREAK">      0.00000000</i>
     <i name="DEPER">      0.30000000</i>
     <i type="int" name="NRMM">     4</i>
     <i name="TIME">      0.40000000</i>
    </separator>
   </separator>
   <separator name="electronic mixer" >
    <i name="AMIX">      0.40000000</i>
    <i name="BMIX">      1.00000000</i>
    <i name="AMIN">      0.10000000</i>
    <i name="AMIX_MAG">      1.60000000</i>
    <i name="BMIX_MAG">      1.00000000</i>
    <separator name="electronic mixer details" >
     <i type="int" name="IMIX">     4</i>
     <i type="logical" name="MIXFIRST"> F  </i>
     <i type="int" name="MAXMIX">   -45</i>
     <i name="WC">    100.00000000</i>
     <i type="int" name="INIMIX">     1</i>
     <i type="int" name="MIXPRE">     1</i>
     <i type="int" name="MREMOVE">     5</i>
    </separator>
   </separator>
   <separator name="electronic dipolcorrection" >
    <i type="logical" name="LDIPOL"> F  </i>
    <i type="logical" name="LMONO"> F  </i>
    <i type="int" name="IDIPOL">     0</i>
    <i name="EPSILON">      1.00000000</i>
    <v name="DIPOL">   -100.00000000   -100.00000000   -100.00000000</v>
    <i name="EFIELD">      0.00000000</i>
   </separator>
  </separator>
  <separator name="grids" >
   <i type="int" name="NGX">    30</i>
   <i type="int" name="NGY">    48</i>
   <i type="int" name="NGZ">    60</i>
   <i type="int" name="NGXF">    60</i>
   <i type="int" name="NGYF">    96</i>
   <i type="int" name="NGZF">   120</i>
   <i type="logical" name="ADDGRID"> T  </i>
  </separator>
  <separator name="ionic" >
   <i type="int" name="NSW">     1</i>
   <i type="int" name="IBRION">     2</i>
   <i type="int" name="MDALGO">     0</i>
   <i type="int" name="ISIF">     2</i>
   <i name="PSTRESS">      0.00000000</i>
   <i name="EDIFFG">      0.00000010</i>
   <i type="int" name="NFREE">     1</i>
   <i name="POTIM">      0.50000000</i>
   <i name="SMASS">     -3.00000000</i>
   <i name="SCALEE">      1.00000000</i>
  </separator>
  <separator name="ionic md" >
   <i name="TEBEG">      0.00010000</i>
   <i name="TEEND">      0.00010000</i>
   <i type="int" name="NBLOCK">     1</i>
   <i type="int" name="KBLOCK">     1</i>
   <i type="int" name="NPACO">   256</i>
   <i name="APACO">     16.00000000</i>
  </separator>
  <separator name="symmetry" >
   <i type="int" name="ISYM">     2</i>
   <i name="SYMPREC">      0.00001000</i>
  </separator>
  <separator name="dos" >
   <i type="int" name="LORBIT">     0</i>
   <v name="RWIGS">     -1.00000000     -1.00000000     -1.00000000</v>
   <i type="int" name="NEDOS">   301</i>
   <i name="EMIN">     10.00000000</i>
   <i name="EMAX">    -10.00000000</i>
   <i name="EFERMI">      0.00000000</i>
  </separator>
  <separator name="writing" >
   <i type="int" name="NWRITE">     2</i>
   <i type="logical" name="LWAVE"> T  </i>
   <i type="logical" name="LDOWNSAMPLE"> F  </i>
   <i type="logical" name="LCHARG"> T  </i>
   <i type="logical" name="LPARD"> F  </i>
   <i type="logical" name="LVTOT"> F  </i>
   <i type="logical" name="LVHAR"> F  </i>
   <i type="logical" name="LELF"> F  </i>
   <i type="logical" name="LOPTICS"> F  </i>
   <v name="STM">      0.00000000      0.00000000      0.00000000      0.00000000      0.00000000      0.00000000      0.00000000</v>
  </separator>
  <separator name="performance" >
   <i type="int" name="NPAR">     4</i>
   <i type="int" name="NSIM">     4</i>
   <i type="int" name="NBLK">    -1</i>
   <i type="logical" name="LPLANE"> T  </i>
   <i type="logical" name="LSCALAPACK"> T  </i>
   <i type="logical" name="LSCAAWARE"> F  </i>
   <i type="logical" name="LSCALU"> F  </i>
   <i type="logical" name="LASYNC"> F  </i>
   <i type="logical" name="LORBITALREAL"> F  </i>
  </separator>
  <separator name="miscellaneous" >
   <i type="int" name="IDIOT">     3</i>
   <i type="int" name="ISPECIAL">     0</i>
   <i type="logical" name="LMUSIC"> F  </i>
   <v name="POMASS">    107.86800000     78.96000000     32.06600000</v>
   <v name="DARWINR">      0.00000000      0.00000000      0.00000000</v>
   <v name="DARWINV">      1.00000000      1.00000000      1.00000000</v>
   <i type="logical" name="LCORR"> T  </i>
  </separator>
  <i type="logical" name="GGA_COMPAT"> T  </i>
  <i type="logical" name="LBERRY"> F  </i>
  <i type="int" name="ICORELEVEL">     0</i>
  <i type="logical" name="LDAU"> T  </i>
  <v type="int" name="LDAUTYPE">     2</v>
  <v type="int" name="LDAUL">     2</v>
  <v name="LDAUU">      2.00000000</v>
  <v name="LDAUJ">      0.00000000</v>
  <i type="int" name="LDAUPRINT">     0</i>
  <i type="int" name="I_CONSTRAINED_M">     0</i>
  <separator name="electronic exchange-correlation" >
   <i type="string" name="GGA">--</i>
   <i type="int" name="VOSKOWN">     0</i>
   <i type="logical" name="LHFCALC"> F  </i>
   <i type="string" name="PRECFOCK"></i>
   <i type="logical" name="LSYMGRAD"> F  </i>
   <i type="logical" name="LHFONE"> F  </i>
   <i type="logical" name="LRHFCALC"> F  </i>
   <i type="logical" name="LTHOMAS"> F  </i>
   <i type="logical" name="LMODELHF"> F  </i>
   <i name="ENCUT4O">     -1.00000000</i>
   <i type="int" name="EXXOEP">     0</i>
   <i type="int" name="FOURORBIT">     0</i>
   <i name="AEXX">      0.00000000</i>
   <i name="HFALPHA">      0.00000000</i>
   <i name="MCALPHA">      0.00000000</i>
   <i name="ALDAX">      1.00000000</i>
   <i name="AGGAX">      1.00000000</i>
   <i name="ALDAC">      1.00000000</i>
   <i name="AGGAC">      1.00000000</i>
   <i type="int" name="NKREDX">     1</i>
   <i type="int" name="NKREDY">     1</i>
   <i type="int" name="NKREDZ">     1</i>
   <i type="logical" name="SHIFTRED"> F  </i>
   <i type="logical" name="ODDONLY"> F  </i>
   <i type="logical" name="EVENONLY"> F  </i>
   <i type="int" name="LMAXFOCK">     0</i>
   <i type="int" name="NMAXFOCKAE">     0</i>
   <i type="logical" name="LFOCKAEDFT"> F  </i>
   <i name="HFSCREEN">      0.00000000</i>
   <i name="HFSCREENC">      0.00000000</i>
   <i type="int" name="NBANDSGWLOW">     0</i>
  </separator>
  <separator name="vdW DFT" >
   <i type="logical" name="LUSE_VDW"> F  </i>
   <i name="Zab_VDW">     -0.84910000</i>
   <i name="PARAM1">      0.12340000</i>
   <i name="PARAM2">      1.00000000</i>
   <i name="PARAM3">      0.00000000</i>
  </separator>
  <separator name="model GW" >
   <i type="int" name="MODEL_GW">     0</i>
   <i name="MODEL_EPS0">     11.23168686</i>
   <i name="MODEL_ALPHA">      1.00000000</i>
  </separator>
  <separator name="linear response parameters" >
   <i type="logical" name="LEPSILON"> F  </i>
   <i type="logical" name="LRPA"> F  </i>
   <i type="logical" name="LNABLA"> F  </i>
   <i type="logical" name="LVEL"> F  </i>
   <i type="int" name="KINTER">     0</i>
   <i name="CSHIFT">      0.10000000</i>
   <i name="OMEGAMAX">     -1.00000000</i>
   <i name="DEG_THRESHOLD">      0.00200000</i>
   <i name="RTIME">     -0.10000000</i>
   <i name="WPLASMAI">      0.00000000</i>
   <v name="DFIELD">      0.00000000      0.00000000      0.00000000</v>
   <v name="WPLASMA">      0.00000000      0.00000000      0.00000000      0.00000000      0.00000000      0.00000000      0.00000000      0.00000000      0.00000000</v>
  </separator>
  <separator name="orbital magnetization" >
   <i type="logical" name="NUCIND"> F  </i>
   <v name="MAGPOS">      0.00000000      0.00000000      0.00000000</v>
   <i type="logical" name="LNICSALL"> T  </i>
   <i type="logical" name="ORBITALMAG"> F  </i>
   <i type="logical" name="LMAGBLOCH"> F  </i>
   <i type="logical" name="LCHIMAG"> F  </i>
   <i type="logical" name="LGAUGE"> T  </i>
   <i type="int" name="MAGATOM">     0</i>
   <v name="MAGDIPOL">      0.00000000      0.00000000      0.00000000</v>
   <v name="AVECCONST">      0.00000000      0.00000000      0.00000000</v>
  </separator>
  <separator name="response functions" >
   <i type="logical" name="LADDER"> F  </i>
   <i type="logical" name="LRPAFORCE"> F  </i>
   <i type="logical" name="LFXC"> F  </i>
   <i type="logical" name="LHARTREE"> T  </i>
   <i type="int" name="IBSE">     0</i>
   <v type="int" name="KPOINT">    -1     0     0     0</v>
   <i type="logical" name="LTCTE"> F  </i>
   <i type="logical" name="LTETE"> F  </i>
   <i type="logical" name="LTRIPLET"> F  </i>
   <i type="logical" name="LFXCEPS"> F  </i>
   <i type="logical" name="LFXHEG"> F  </i>
   <i type="int" name="NATURALO">     2</i>
   <i type="logical" name="L2ORDER"> F  </i>
   <i type="logical" name="LMP2LT"> F  </i>
   <i type="logical" name="LUSEW"> F  </i>
   <i name="ENCUTGW">     -2.00000000</i>
   <i name="ENCUTGWSOFT">     -2.00000000</i>
   <i name="ENCUTLF">     -1.00000000</i>
   <i type="int" name="LMAXMP2">    -1</i>
   <i name="SCISSOR">      0.00000000</i>
   <i type="int" name="NOMEGA">     0</i>
   <i type="int" name="NOMEGAR">     0</i>
   <i type="int" name="NBANDSGW">    -1</i>
   <i type="int" name="NBANDSO">    -1</i>
   <i type="int" name="NBANDSV">    -1</i>
   <i type="int" name="NELM">     1</i>
   <i type="int" name="NELMHF">     1</i>
   <i type="int" name="DIM">     3</i>
   <i type="int" name="ANTIRES">     0</i>
   <i name="OMEGAMAX">    -30.00000000</i>
   <i name="OMEGAMIN">    -30.00000000</i>
   <i name="OMEGATL">   -200.00000000</i>
   <i type="int" name="OMEGAGRID">   140</i>
   <i name="CSHIFT">     -0.10000000</i>
   <i type="logical" name="SELFENERGY"> F  </i>
   <i type="logical" name="LSPECTRAL"> F  </i>
   <i type="logical" name="LSPECTRALGW"> F  </i>
   <i type="logical" name="LSINGLES"> F  </i>
   <i type="logical" name="LFERMIGW"> F  </i>
   <i type="logical" name="ODDONLYGW"> F  </i>
   <i type="logical" name="EVENONLYGW"> F  </i>
   <i type="int" name="NKREDLFX">     1</i>
   <i type="int" name="NKREDLFY">     1</i>
   <i type="int" name="NKREDLFZ">     1</i>
   <i type="int" name="MAXMEM">  2800</i>
   <i type="int" name="TELESCOPE">     0</i>
   <i type="int" name="TAUPAR">     1</i>
   <i type="int" name="OMEGAPAR">    -1</i>
   <i name="LAMBDA">      1.00000000</i>
  </separator>
  <separator name="External order field" >
   <i name="OFIELD_KAPPA">      0.00000000</i>
   <v name="OFIELD_K">      0.00000000      0.00000000      0.00000000</v>
   <i name="OFIELD_Q6_NEAR">      0.00000000</i>
   <i name="OFIELD_Q6_FAR">      0.00000000</i>
   <i name="OFIELD_A">      0.00000000</i>
  </separator>
 </parameters>
 <atominfo>
  <atoms>      12 </atoms>
  <types>       3 </types>
  <array name="atoms" >
   <dimension dim="1">ion</dimension>
   <field type="string">element</field>
   <field type="int">atomtype</field>
   <set>
    <rc><c>Ag</c><c>   1</c></rc>
    <rc><c>Ag</c><c>   1</c></rc>
    <rc><c>Ag</c><c>   1</c></rc>
    <rc><c>Ag</c><c>   1</c></rc>
    <rc><c>Ag</c><c>   1</c></rc>
    <rc><c>Ag</c><c>   1</c></rc>
    <rc><c>Ag</c><c>   1</c></rc>
    <rc><c>Ag</c><c>   1</c></rc>
    <rc><c>Se</c><c>   2</c></rc>
    <rc><c>Se</c><c>   2</c></rc>
    <rc><c>S </c><c>   3</c></rc>
    <rc><c>S </c><c>   3</c></rc>
   </set>
  </array>
  <array name="atomtypes" >
   <dimension dim="1">type</dimension>
   <field type="int">atomspertype</field>
   <field type="string">element</field>
   <field>mass</field>
   <field>valence</field>
   <field type="string">pseudopotential</field>
   <set>
    <rc><c>   8</c><c>Ag</c><c>    107.86800000</c><c>     11.00000000</c><c>  PAW_PBE Ag 02Apr2005                  </c></rc>
    <rc><c>   2</c><c>Se</c><c>     78.96000000</c><c>      6.00000000</c><c>  PAW_PBE Se 06Sep2000                  </c></rc>
    <rc><c>   2</c><c>S </c><c>     32.06600000</c><c>      6.00000000</c><c>  PAW_PBE S 06Sep2000                   </c></rc>
   </set>
  </array>
 </atominfo>
 <structure name="initialpos" >
  <crystal>
   <varray name="basis" >
    <v>       4.18247445       0.00000000       0.04408670 </v>
    <v>       0.00000000       6.78794518       0.00000000 </v>
    <v>      -2.63378168       0.00000000       7.88454898 </v>
   </varray>
   <i name="volume">    224.63373727 </i>
   <varray name="rec_basis" >
    <v>       0.23825400       0.00000000       0.07958718 </v>
    <v>       0.00000000       0.14731999       0.00000000 </v>
    <v>      -0.00133220       0.00000000       0.12638532 </v>
   </varray>
  </crystal>
  <varray name="positions" >
   <v>       0.56248857       0.47540865       0.82873073 </v>
   <v>       0.32633889       0.52366353       0.12475047 </v>
   <v>       0.22496514       0.34823390       0.44925162 </v>
   <v>       0.43751143       0.97540862       0.67126927 </v>
   <v>       0.67366111       0.02366350       0.37524953 </v>
   <v>       0.80660516       0.63994349       0.55791625 </v>
   <v>       0.19339481       0.13994351       0.94208375 </v>
   <v>       0.77503483       0.84823390       0.05074838 </v>
   <v>       0.80895514       0.25285123       0.14060502 </v>
   <v>       0.19104489       0.75285124       0.35939499 </v>
   <v>       0.17951603       0.75989921       0.85251090 </v>
   <v>       0.82048400       0.25989921       0.64748910 </v>
  </varray>
 </structure>
 <calculation>
  <scstep>
   <time name="dav">   12.35   12.35</time>
   <time name="total">   12.49   12.49</time>
   <energy>
    <i name="alphaZ">    391.47091764 </i>
    <i name="ewald">  -8373.45896339 </i>
    <i name="hartreedc">  -2080.53117366 </i>
    <i name="XCdc">    -60.44519717 </i>
    <i name="pawpsdc">   8883.26638096 </i>
    <i name="pawaedc">  -8410.20188334 </i>
    <i name="eentropy">     -0.00038827 </i>
    <i name="bandstr">   1002.58349721 </i>
    <i name="atom">   9365.99059378 </i>
    <i name="e_fr_energy">    718.67378376 </i>
    <i name="e_wo_entrp">    718.67417203 </i>
    <i name="e_0_energy">    718.67391319 </i>
   </energy>
  </scstep>
  <scstep>
   <time name="dav">   13.00   13.00</time>
   <time name="total">   13.01   13.01</time>
   <energy>
    <i name="e_fr_energy">      3.07166225 </i>
    <i name="e_wo_entrp">      3.07175734 </i>
    <i name="e_0_energy">      3.07169394 </i>
   </energy>
  </scstep>
  <scstep>
   <time name="dav">   13.25   13.25</time>
   <time name="total">   13.26   13.26</time>
   <energy>
    <i name="e_fr_energy">    -33.29212829 </i>
    <i name="e_wo_entrp">    -33.29322988 </i>
    <i name="e_0_energy">    -33.29249549 </i>
   </energy>
  </scstep>
  <scstep>
   <time name="dav">   13.15   13.15</time>
   <time name="total">   13.16   13.16</time>
   <energy>
    <i name="e_fr_energy">    -33.91658449 </i>
    <i name="e_wo_entrp">    -33.91771348 </i>
    <i name="e_0_energy">    -33.91696082 </i>
   </energy>
  </scstep>
  <scstep>
   <time name="dav">   13.14   13.14</time>
   <time name="total">   13.76   13.76</time>
   <energy>
    <i name="e_fr_energy">    -33.92539916 </i>
    <i name="e_wo_entrp">    -33.92653075 </i>
    <i name="e_0_energy">    -33.92577635 </i>
   </energy>
  </scstep>
  <scstep>
   <time name="dav">   13.23   13.23</time>
   <time name="total">   13.97   13.97</time>
   <energy>
    <i name="e_fr_energy">    -32.12503099 </i>
    <i name="e_wo_entrp">    -32.12598779 </i>
    <i name="e_0_energy">    -32.12534993 </i>
   </energy>
  </scstep>
  <scstep>
   <time name="dav">   12.86   12.86</time>
   <time name="total">   13.58   13.58</time>
   <energy>
    <i name="e_fr_energy">    -32.17121723 </i>
    <i name="e_wo_entrp">    -32.17213427 </i>
    <i name="e_0_energy">    -32.17152291 </i>
   </energy>
  </scstep>
  <scstep>
   <time name="dav">   13.06   13.06</time>
   <time name="total">   13.80   13.80</time>
   <energy>
    <i name="e_fr_energy">    -32.14431943 </i>
    <i name="e_wo_entrp">    -32.14527155 </i>
    <i name="e_0_energy">    -32.14463680 </i>
   </energy>
  </scstep>
  <scstep>
   <time name="dav">   13.12   13.12</time>
   <time name="total">   13.85   13.85</time>
   <energy>
    <i name="e_fr_energy">    -32.14310549 </i>
    <i name="e_wo_entrp">    -32.14405704 </i>
    <i name="e_0_energy">    -32.14342267 </i>
   </energy>
  </scstep>
  <scstep>
   <time name="dav">   13.20   13.20</time>
   <time name="total">   13.93   13.93</time>
   <energy>
    <i name="e_fr_energy">    -32.14325038 </i>
    <i name="e_wo_entrp">    -32.14420159 </i>
    <i name="e_0_energy">    -32.14356745 </i>
   </energy>
  </scstep>
  <scstep>
   <time name="dav">   13.90   13.90</time>
   <time name="total">   14.64   14.64</time>
   <energy>
    <i name="e_fr_energy">    -32.14334767 </i>
    <i name="e_wo_entrp">    -32.14430106 </i>
    <i name="e_0_energy">    -32.14366547 </i>
   </energy>
  </scstep>
  <scstep>
   <time name="dav">   13.14   13.14</time>
   <time name="total">   13.87   13.87</time>
   <energy>
    <i name="e_fr_energy">    -32.14332222 </i>
    <i name="e_wo_entrp">    -32.14427434 </i>
    <i name="e_0_energy">    -32.14363959 </i>
   </energy>
  </scstep>
  <scstep>
   <time name="dav">   14.11   14.29</time>
   <time name="total">   14.88   15.08</time>
   <energy>
    <i name="e_fr_energy">    -32.14331476 </i>
    <i name="e_wo_entrp">    -32.14426647 </i>
    <i name="e_0_energy">    -32.14363199 </i>
   </energy>
  </scstep>
  <scstep>
   <time name="dav">   22.78   23.96</time>
   <time name="total">   23.59   24.81</time>
   <energy>
    <i name="e_fr_energy">    -32.14331367 </i>
    <i name="e_wo_entrp">    -32.14426523 </i>
    <i name="e_0_energy">    -32.14363086 </i>
   </energy>
  </scstep>
  <scstep>
   <time name="dav">   22.79   22.79</time>
   <time name="total">   23.60   23.60</time>
   <energy>
    <i name="e_fr_energy">    -32.14331369 </i>
    <i name="e_wo_entrp">    -32.14426522 </i>
    <i name="e_0_energy">    -32.14363087 </i>
   </energy>
  </scstep>
  <scstep>
   <time name="dav">   26.37   26.37</time>
   <time name="total">   27.32   27.32</time>
   <energy>
    <i name="e_fr_energy">    -32.14331352 </i>
    <i name="e_wo_entrp">    -32.14426505 </i>
    <i name="e_0_energy">    -32.14363069 </i>
   </energy>
  </scstep>
  <scstep>
   <time name="dav">   25.35   25.35</time>
   <time name="total">   26.37   26.37</time>
   <energy>
    <i name="e_fr_energy">    -32.14331362 </i>
    <i name="e_wo_entrp">    -32.14426516 </i>
    <i name="e_0_energy">    -32.14363080 </i>
   </energy>
  </scstep>
  <scstep>
   <time name="dav">   17.10   17.10</time>
   <time name="total">   17.26   17.27</time>
   <energy>
    <i name="alphaZ">    391.47091764 </i>
    <i name="ewald">  -8373.45896339 </i>
    <i name="hartreedc">  -2020.90812707 </i>
    <i name="XCdc">    -61.64094836 </i>
    <i name="pawpsdc">  10877.66173139 </i>
    <i name="pawaedc"> -10415.08563750 </i>
    <i name="eentropy">      0.00095154 </i>
    <i name="bandstr">    203.82616835 </i>
    <i name="atom">   9365.99059378 </i>
    <i name="e_fr_energy">    -32.14331361 </i>
    <i name="e_wo_entrp">    -32.14426515 </i>
    <i name="e_0_energy">    -32.14363079 </i>
   </energy>
  </scstep>
  <structure>
   <crystal>
    <varray name="basis" >
     <v>       4.18247445       0.00000000       0.04408670 </v>
     <v>       0.00000000       6.78794518       0.00000000 </v>
     <v>      -2.63378168       0.00000000       7.88454898 </v>
    </varray>
    <i name="volume">    224.63373727 </i>
    <varray name="rec_basis" >
     <v>       0.23825400       0.00000000       0.07958718 </v>
     <v>       0.00000000       0.14731999       0.00000000 </v>
     <v>      -0.00133220       0.00000000       0.12638532 </v>
    </varray>
   </crystal>
   <varray name="positions" >
    <v>       0.56248857       0.47540865       0.82873073 </v>
    <v>       0.32633889       0.52366353       0.12475047 </v>
    <v>       0.22496514       0.34823390       0.44925162 </v>
    <v>       0.43751143       0.97540862       0.67126927 </v>
    <v>       0.67366111       0.02366350       0.37524953 </v>
    <v>       0.80660516       0.63994349       0.55791625 </v>
    <v>       0.19339481       0.13994351       0.94208375 </v>
    <v>       0.77503483       0.84823390       0.05074838 </v>
    <v>       0.80895514       0.25285123       0.14060502 </v>
    <v>       0.19104489       0.75285124       0.35939499 </v>
    <v>       0.17951603       0.75989921       0.85251090 </v>
    <v>       0.82048400       0.25989921       0.64748910 </v>
   </varray>
  </structure>
  <varray name="forces" >
   <v>      -0.00985470       0.01285717      -0.02397523 </v>
   <v>       0.00183373       0.00552522      -0.00454503 </v>
   <v>       0.02895856      -0.02031321       0.00101656 </v>
   <v>       0.00985470       0.01285717       0.02397523 </v>
   <v>      -0.00183373       0.00552522       0.00454503 </v>
   <v>      -0.01496942       0.01236789       0.00861335 </v>
   <v>       0.01496942       0.01236789      -0.00861335 </v>
   <v>      -0.02895856      -0.02031321      -0.00101656 </v>
   <v>       0.00151227      -0.01447345       0.06174293 </v>
   <v>      -0.00151227      -0.01447345      -0.06174293 </v>
   <v>       0.03924641       0.00403638      -0.04852462 </v>
   <v>      -0.03924641       0.00403638       0.04852462 </v>
  </varray>
  <varray name="stress" >
   <v>       3.00397399       0.00000000       1.14895320 </v>
   <v>       0.00000000       2.31645521       0.00000000 </v>
   <v>       1.14895323       0.00000000       1.54724996 </v>
  </varray>
  <energy>
   <i name="e_fr_energy">    -37.95906749 </i>
   <i name="e_wo_entrp">    -37.95938467 </i>
   <i name="e_0_energy">      0.00095154 </i>
  </energy>
  <time name="totalsc">  315.36  316.81</time>
  <eigenvalues>
   <array>
    <dimension dim="1">band</dimension>
    <dimension dim="2">kpoint</dimension>
    <dimension dim="3">spin</dimension>
    <field>eigene</field>
    <field>occ</field>
    <set>
     <set comment="spin 1">
      <set comment="kpoint 1">
       <r>   -6.9344    1.0000 </r>
       <r>   -6.4575    1.0000 </r>
       <r>   -6.3495    1.0000 </r>
       <r>   -6.2790    1.0000 </r>
       <r>    0.1313    1.0000 </r>
       <r>    0.3820    1.0000 </r>
       <r>    0.4747    1.0000 </r>
       <r>    0.4919    1.0000 </r>
       <r>    0.5647    1.0000 </r>
       <r>    0.8931    1.0000 </r>
       <r>    0.9180    1.0000 </r>
       <r>    0.9844    1.0000 </r>
       <r>    1.0119    1.0000 </r>
       <r>    1.0839    1.0000 </r>
       <r>    1.2795    1.0000 </r>
       <r>    1.3751    1.0000 </r>
       <r>    1.4113    1.0000 </r>
       <r>    1.4438    1.0000 </r>
       <r>    1.5159    1.0000 </r>
       <r>    1.5542    1.0000 </r>
       <r>    1.6941    1.0000 </r>
       <r>    1.8419    1.0000 </r>
       <r>    1.8509    1.0000 </r>
       <r>    1.8604    1.0000 </r>
       <r>    1.9821    1.0000 </r>
       <r>    1.9934    1.0000 </r>
       <r>    2.0207    1.0000 </r>
       <r>    2.1391    1.0000 </r>
       <r>    2.1499    1.0000 </r>
       <r>    2.1639    1.0000 </r>
       <r>    2.2436    1.0000 </r>
       <r>    2.3664    1.0000 </r>
       <r>    2.3820    1.0000 </r>
       <r>    2.4250    1.0000 </r>
       <r>    2.5492    1.0000 </r>
       <r>    2.5508    1.0000 </r>
       <r>    2.6288    1.0000 </r>
       <r>    2.6626    1.0000 </r>
       <r>    2.7496    1.0000 </r>
       <r>    2.7771    1.0000 </r>
       <r>    2.8581    1.0000 </r>
       <r>    2.8779    1.0000 </r>
       <r>    2.9029    1.0000 </r>
       <r>    3.0955    1.0000 </r>
       <r>    3.1151    1.0000 </r>
       <r>    3.2702    1.0000 </r>
       <r>    3.5261    1.0000 </r>
       <r>    3.6339    1.0000 </r>
       <r>    4.4165    1.0000 </r>
       <r>    4.7369    1.0000 </r>
       <r>    5.0066    1.0000 </r>
       <r>    5.3728    1.0000 </r>
       <r>    5.9875    1.0000 </r>
       <r>    6.1473    1.0000 </r>
       <r>    6.3636    1.0128 </r>
       <r>    6.4500    1.0227 </r>
       <r>    6.5836    0.2177 </r>
       <r>    7.7133   -0.0000 </r>
       <r>    9.0643   -0.0000 </r>
       <r>    9.2923    0.0000 </r>
       <r>    9.8206    0.0000 </r>
       <r>   10.8543    0.0000 </r>
       <r>   11.2271    0.0000 </r>
       <r>   11.7338    0.0000 </r>
       <r>   11.8372    0.0000 </r>
       <r>   12.0516    0.0000 </r>
       <r>   12.8770    0.0000 </r>
       <r>   13.0917    0.0000 </r>
      </set>
      <set comment="kpoint 2">
       <r>   -6.9124    1.0000 </r>
       <r>   -6.4543    1.0000 </r>
       <r>   -6.3429    1.0000 </r>
       <r>   -6.2774    1.0000 </r>
       <r>    0.1480    1.0000 </r>
       <r>    0.3844    1.0000 </r>
       <r>    0.4434    1.0000 </r>
       <r>    0.4893    1.0000 </r>
       <r>    0.6744    1.0000 </r>
       <r>    0.8573    1.0000 </r>
       <r>    0.9279    1.0000 </r>
       <r>    0.9542    1.0000 </r>
       <r>    1.0373    1.0000 </r>
       <r>    1.1162    1.0000 </r>
       <r>    1.3138    1.0000 </r>
       <r>    1.3534    1.0000 </r>
       <r>    1.4152    1.0000 </r>
       <r>    1.4521    1.0000 </r>
       <r>    1.5338    1.0000 </r>
       <r>    1.5433    1.0000 </r>
       <r>    1.6904    1.0000 </r>
       <r>    1.7580    1.0000 </r>
       <r>    1.8271    1.0000 </r>
       <r>    1.8558    1.0000 </r>
       <r>    1.9331    1.0000 </r>
       <r>    2.0001    1.0000 </r>
       <r>    2.0284    1.0000 </r>
       <r>    2.1335    1.0000 </r>
       <r>    2.1410    1.0000 </r>
       <r>    2.2366    1.0000 </r>
       <r>    2.2791    1.0000 </r>
       <r>    2.3466    1.0000 </r>
       <r>    2.3930    1.0000 </r>
       <r>    2.4298    1.0000 </r>
       <r>    2.5215    1.0000 </r>
       <r>    2.5853    1.0000 </r>
       <r>    2.6040    1.0000 </r>
       <r>    2.6810    1.0000 </r>
       <r>    2.7322    1.0000 </r>
       <r>    2.7630    1.0000 </r>
       <r>    2.8166    1.0000 </r>
       <r>    2.8679    1.0000 </r>
       <r>    2.9063    1.0000 </r>
       <r>    3.0586    1.0000 </r>
       <r>    3.1435    1.0000 </r>
       <r>    3.3110    1.0000 </r>
       <r>    3.5854    1.0000 </r>
       <r>    3.6495    1.0000 </r>
       <r>    4.4118    1.0000 </r>
       <r>    4.5898    1.0000 </r>
       <r>    4.9262    1.0000 </r>
       <r>    5.3560    1.0000 </r>
       <r>    5.6890    1.0000 </r>
       <r>    6.0407    1.0000 </r>
       <r>    6.4101    1.0326 </r>
       <r>    6.4878    0.9206 </r>
       <r>    6.6452   -0.0221 </r>
       <r>    8.0108   -0.0000 </r>
       <r>    9.2619   -0.0000 </r>
       <r>    9.5106    0.0000 </r>
       <r>    9.7906    0.0000 </r>
       <r>   10.7759    0.0000 </r>
       <r>   11.0948    0.0000 </r>
       <r>   11.4673    0.0000 </r>
       <r>   11.7740    0.0000 </r>
       <r>   11.8304    0.0000 </r>
       <r>   12.8254    0.0000 </r>
       <r>   13.2320    0.0000 </r>
      </set>
      <set comment="kpoint 3">
       <r>   -6.8494    1.0000 </r>
       <r>   -6.4448    1.0000 </r>
       <r>   -6.3263    1.0000 </r>
       <r>   -6.2731    1.0000 </r>
       <r>    0.1885    1.0000 </r>
       <r>    0.3649    1.0000 </r>
       <r>    0.4742    1.0000 </r>
       <r>    0.5458    1.0000 </r>
       <r>    0.7286    1.0000 </r>
       <r>    0.8299    1.0000 </r>
       <r>    0.8835    1.0000 </r>
       <r>    1.0223    1.0000 </r>
       <r>    1.0725    1.0000 </r>
       <r>    1.1915    1.0000 </r>
       <r>    1.2986    1.0000 </r>
       <r>    1.3856    1.0000 </r>
       <r>    1.4193    1.0000 </r>
       <r>    1.4394    1.0000 </r>
       <r>    1.5472    1.0000 </r>
       <r>    1.5806    1.0000 </r>
       <r>    1.6348    1.0000 </r>
       <r>    1.6869    1.0000 </r>
       <r>    1.7935    1.0000 </r>
       <r>    1.8419    1.0000 </r>
       <r>    1.8653    1.0000 </r>
       <r>    1.9534    1.0000 </r>
       <r>    2.0595    1.0000 </r>
       <r>    2.0988    1.0000 </r>
       <r>    2.1874    1.0000 </r>
       <r>    2.2753    1.0000 </r>
       <r>    2.3566    1.0000 </r>
       <r>    2.3724    1.0000 </r>
       <r>    2.3856    1.0000 </r>
       <r>    2.4076    1.0000 </r>
       <r>    2.5033    1.0000 </r>
       <r>    2.5570    1.0000 </r>
       <r>    2.5950    1.0000 </r>
       <r>    2.6934    1.0000 </r>
       <r>    2.7172    1.0000 </r>
       <r>    2.7206    1.0000 </r>
       <r>    2.7542    1.0000 </r>
       <r>    2.8688    1.0000 </r>
       <r>    2.9208    1.0000 </r>
       <r>    2.9958    1.0000 </r>
       <r>    3.1613    1.0000 </r>
       <r>    3.3966    1.0000 </r>
       <r>    3.6647    1.0000 </r>
       <r>    3.6965    1.0000 </r>
       <r>    4.2639    1.0000 </r>
       <r>    4.4219    1.0000 </r>
       <r>    4.7361    1.0000 </r>
       <r>    5.1240    1.0000 </r>
       <r>    5.5305    1.0000 </r>
       <r>    5.7371    1.0000 </r>
       <r>    6.2803    1.0005 </r>
       <r>    6.3943    1.0261 </r>
       <r>    7.0957   -0.0000 </r>
       <r>    8.6109   -0.0000 </r>
       <r>    9.5631    0.0000 </r>
       <r>    9.6461    0.0000 </r>
       <r>    9.8937    0.0000 </r>
       <r>   10.6570    0.0000 </r>
       <r>   10.8067    0.0000 </r>
       <r>   11.0617    0.0000 </r>
       <r>   11.3634    0.0000 </r>
       <r>   11.6195    0.0000 </r>
       <r>   12.6394    0.0000 </r>
       <r>   12.6802    0.0000 </r>
      </set>
      <set comment="kpoint 4">
       <r>   -6.7543    1.0000 </r>
       <r>   -6.4298    1.0000 </r>
       <r>   -6.3085    1.0000 </r>
       <r>   -6.2658    1.0000 </r>
       <r>    0.2310    1.0000 </r>
       <r>    0.3940    1.0000 </r>
       <r>    0.4681    1.0000 </r>
       <r>    0.6433    1.0000 </r>
       <r>    0.7055    1.0000 </r>
       <r>    0.7709    1.0000 </r>
       <r>    0.8827    1.0000 </r>
       <r>    1.0694    1.0000 </r>
       <r>    1.1886    1.0000 </r>
       <r>    1.2450    1.0000 </r>
       <r>    1.2764    1.0000 </r>
       <r>    1.3169    1.0000 </r>
       <r>    1.4309    1.0000 </r>
       <r>    1.4691    1.0000 </r>
       <r>    1.5924    1.0000 </r>
       <r>    1.5936    1.0000 </r>
       <r>    1.6536    1.0000 </r>
       <r>    1.7051    1.0000 </r>
       <r>    1.7938    1.0000 </r>
       <r>    1.8095    1.0000 </r>
       <r>    1.8506    1.0000 </r>
       <r>    1.9173    1.0000 </r>
       <r>    2.0563    1.0000 </r>
       <r>    2.1291    1.0000 </r>
       <r>    2.2167    1.0000 </r>
       <r>    2.2690    1.0000 </r>
       <r>    2.3258    1.0000 </r>
       <r>    2.3508    1.0000 </r>
       <r>    2.4087    1.0000 </r>
       <r>    2.4217    1.0000 </r>
       <r>    2.4899    1.0000 </r>
       <r>    2.5258    1.0000 </r>
       <r>    2.5692    1.0000 </r>
       <r>    2.6320    1.0000 </r>
       <r>    2.6621    1.0000 </r>
       <r>    2.6819    1.0000 </r>
       <r>    2.8296    1.0000 </r>
       <r>    2.8629    1.0000 </r>
       <r>    2.8961    1.0000 </r>
       <r>    2.9763    1.0000 </r>
       <r>    3.1581    1.0000 </r>
       <r>    3.3967    1.0000 </r>
       <r>    3.6668    1.0000 </r>
       <r>    3.7419    1.0000 </r>
       <r>    4.0601    1.0000 </r>
       <r>    4.3253    1.0000 </r>
       <r>    4.4354    1.0000 </r>
       <r>    5.1407    1.0000 </r>
       <r>    5.3727    1.0000 </r>
       <r>    5.5616    1.0000 </r>
       <r>    6.0329    1.0000 </r>
       <r>    6.3230    1.0033 </r>
       <r>    7.6164   -0.0000 </r>
       <r>    9.1034   -0.0000 </r>
       <r>    9.2405   -0.0000 </r>
       <r>    9.3772    0.0000 </r>
       <r>    9.7485    0.0000 </r>
       <r>   10.5624    0.0000 </r>
       <r>   10.7506    0.0000 </r>
       <r>   11.0432    0.0000 </r>
       <r>   11.1983    0.0000 </r>
       <r>   11.7574    0.0000 </r>
       <r>   12.1973    0.0000 </r>
       <r>   12.3430    0.0000 </r>
      </set>
      <set comment="kpoint 5">
       <r>   -6.6412    1.0000 </r>
       <r>   -6.4120    1.0000 </r>
       <r>   -6.3025    1.0000 </r>
       <r>   -6.2546    1.0000 </r>
       <r>    0.2667    1.0000 </r>
       <r>    0.3846    1.0000 </r>
       <r>    0.4555    1.0000 </r>
       <r>    0.6383    1.0000 </r>
       <r>    0.7244    1.0000 </r>
       <r>    0.7947    1.0000 </r>
       <r>    0.9173    1.0000 </r>
       <r>    1.0758    1.0000 </r>
       <r>    1.1673    1.0000 </r>
       <r>    1.2010    1.0000 </r>
       <r>    1.2651    1.0000 </r>
       <r>    1.3809    1.0000 </r>
       <r>    1.4449    1.0000 </r>
       <r>    1.5067    1.0000 </r>
       <r>    1.6462    1.0000 </r>
       <r>    1.6635    1.0000 </r>
       <r>    1.7048    1.0000 </r>
       <r>    1.7550    1.0000 </r>
       <r>    1.7915    1.0000 </r>
       <r>    1.8538    1.0000 </r>
       <r>    1.8881    1.0000 </r>
       <r>    1.9490    1.0000 </r>
       <r>    2.0652    1.0000 </r>
       <r>    2.1536    1.0000 </r>
       <r>    2.1911    1.0000 </r>
       <r>    2.2464    1.0000 </r>
       <r>    2.2704    1.0000 </r>
       <r>    2.3212    1.0000 </r>
       <r>    2.3799    1.0000 </r>
       <r>    2.4420    1.0000 </r>
       <r>    2.4561    1.0000 </r>
       <r>    2.5124    1.0000 </r>
       <r>    2.5480    1.0000 </r>
       <r>    2.5906    1.0000 </r>
       <r>    2.6203    1.0000 </r>
       <r>    2.6407    1.0000 </r>
       <r>    2.7797    1.0000 </r>
       <r>    2.8296    1.0000 </r>
       <r>    2.8881    1.0000 </r>
       <r>    2.9690    1.0000 </r>
       <r>    3.1867    1.0000 </r>
       <r>    3.3248    1.0000 </r>
       <r>    3.5119    1.0000 </r>
       <r>    3.8376    1.0000 </r>
       <r>    4.0267    1.0000 </r>
       <r>    4.0983    1.0000 </r>
       <r>    4.4013    1.0000 </r>
       <r>    5.1000    1.0000 </r>
       <r>    5.3927    1.0000 </r>
       <r>    5.5478    1.0000 </r>
       <r>    5.7538    1.0000 </r>
       <r>    6.2246    1.0000 </r>
       <r>    8.1108   -0.0000 </r>
       <r>    8.5182   -0.0000 </r>
       <r>    8.8500   -0.0000 </r>
       <r>    9.0880   -0.0000 </r>
       <r>    9.7457    0.0000 </r>
       <r>   10.2850    0.0000 </r>
       <r>   10.6480    0.0000 </r>
       <r>   11.0818    0.0000 </r>
       <r>   11.7019    0.0000 </r>
       <r>   11.8278    0.0000 </r>
       <r>   12.0362    0.0000 </r>
       <r>   12.6651    0.0000 </r>
      </set>
      <set comment="kpoint 6">
       <r>   -6.5279    1.0000 </r>
       <r>   -6.3955    1.0000 </r>
       <r>   -6.3155    1.0000 </r>
       <r>   -6.2449    1.0000 </r>
       <r>    0.2948    1.0000 </r>
       <r>    0.3096    1.0000 </r>
       <r>    0.4505    1.0000 </r>
       <r>    0.5570    1.0000 </r>
       <r>    0.8098    1.0000 </r>
       <r>    0.8363    1.0000 </r>
       <r>    0.9637    1.0000 </r>
       <r>    1.0463    1.0000 </r>
       <r>    1.1300    1.0000 </r>
       <r>    1.2235    1.0000 </r>
       <r>    1.2669    1.0000 </r>
       <r>    1.3911    1.0000 </r>
       <r>    1.4936    1.0000 </r>
       <r>    1.5320    1.0000 </r>
       <r>    1.6893    1.0000 </r>
       <r>    1.7201    1.0000 </r>
       <r>    1.7665    1.0000 </r>
       <r>    1.7845    1.0000 </r>
       <r>    1.8399    1.0000 </r>
       <r>    1.9279    1.0000 </r>
       <r>    1.9311    1.0000 </r>
       <r>    2.0154    1.0000 </r>
       <r>    2.0835    1.0000 </r>
       <r>    2.1254    1.0000 </r>
       <r>    2.1541    1.0000 </r>
       <r>    2.2091    1.0000 </r>
       <r>    2.2236    1.0000 </r>
       <r>    2.2997    1.0000 </r>
       <r>    2.3799    1.0000 </r>
       <r>    2.4057    1.0000 </r>
       <r>    2.4637    1.0000 </r>
       <r>    2.4718    1.0000 </r>
       <r>    2.5376    1.0000 </r>
       <r>    2.5465    1.0000 </r>
       <r>    2.5903    1.0000 </r>
       <r>    2.6058    1.0000 </r>
       <r>    2.6947    1.0000 </r>
       <r>    2.7691    1.0000 </r>
       <r>    2.7980    1.0000 </r>
       <r>    2.9647    1.0000 </r>
       <r>    3.2115    1.0000 </r>
       <r>    3.2944    1.0000 </r>
       <r>    3.5018    1.0000 </r>
       <r>    3.8707    1.0000 </r>
       <r>    4.0227    1.0000 </r>
       <r>    4.0970    1.0000 </r>
       <r>    4.3654    1.0000 </r>
       <r>    5.0038    1.0000 </r>
       <r>    5.2923    1.0000 </r>
       <r>    5.6637    1.0000 </r>
       <r>    5.6866    1.0000 </r>
       <r>    6.1115    1.0000 </r>
       <r>    7.9020   -0.0000 </r>
       <r>    8.3880   -0.0000 </r>
       <r>    8.5077   -0.0000 </r>
       <r>    8.6473   -0.0000 </r>
       <r>    9.8434    0.0000 </r>
       <r>   10.0637    0.0000 </r>
       <r>   10.7260    0.0000 </r>
       <r>   11.2694    0.0000 </r>
       <r>   11.5650    0.0000 </r>
       <r>   11.8493    0.0000 </r>
       <r>   12.1889    0.0000 </r>
       <r>   13.5344    0.0000 </r>
      </set>
      <set comment="kpoint 7">
       <r>   -6.4348    1.0000 </r>
       <r>   -6.3850    1.0000 </r>
       <r>   -6.3501    1.0000 </r>
       <r>   -6.2409    1.0000 </r>
       <r>    0.2606    1.0000 </r>
       <r>    0.3317    1.0000 </r>
       <r>    0.3890    1.0000 </r>
       <r>    0.5189    1.0000 </r>
       <r>    0.8581    1.0000 </r>
       <r>    0.8669    1.0000 </r>
       <r>    0.9628    1.0000 </r>
       <r>    1.0581    1.0000 </r>
       <r>    1.1565    1.0000 </r>
       <r>    1.2513    1.0000 </r>
       <r>    1.2864    1.0000 </r>
       <r>    1.3657    1.0000 </r>
       <r>    1.4967    1.0000 </r>
       <r>    1.5942    1.0000 </r>
       <r>    1.6835    1.0000 </r>
       <r>    1.7486    1.0000 </r>
       <r>    1.7897    1.0000 </r>
       <r>    1.8075    1.0000 </r>
       <r>    1.9066    1.0000 </r>
       <r>    1.9574    1.0000 </r>
       <r>    1.9700    1.0000 </r>
       <r>    2.0345    1.0000 </r>
       <r>    2.0468    1.0000 </r>
       <r>    2.0697    1.0000 </r>
       <r>    2.1542    1.0000 </r>
       <r>    2.2015    1.0000 </r>
       <r>    2.2481    1.0000 </r>
       <r>    2.2965    1.0000 </r>
       <r>    2.3249    1.0000 </r>
       <r>    2.3981    1.0000 </r>
       <r>    2.4415    1.0000 </r>
       <r>    2.4794    1.0000 </r>
       <r>    2.4885    1.0000 </r>
       <r>    2.5215    1.0000 </r>
       <r>    2.5390    1.0000 </r>
       <r>    2.5880    1.0000 </r>
       <r>    2.6805    1.0000 </r>
       <r>    2.7133    1.0000 </r>
       <r>    2.8088    1.0000 </r>
       <r>    2.9205    1.0000 </r>
       <r>    3.1422    1.0000 </r>
       <r>    3.3299    1.0000 </r>
       <r>    3.7031    1.0000 </r>
       <r>    3.7993    1.0000 </r>
       <r>    4.1221    1.0000 </r>
       <r>    4.1485    1.0000 </r>
       <r>    4.2033    1.0000 </r>
       <r>    5.0090    1.0000 </r>
       <r>    5.1066    1.0000 </r>
       <r>    5.6650    1.0000 </r>
       <r>    5.8735    1.0000 </r>
       <r>    6.0047    1.0000 </r>
       <r>    7.5884   -0.0000 </r>
       <r>    7.9773   -0.0000 </r>
       <r>    8.3799   -0.0000 </r>
       <r>    8.8683   -0.0000 </r>
       <r>    9.7356    0.0000 </r>
       <r>    9.9662    0.0000 </r>
       <r>   10.8476    0.0000 </r>
       <r>   11.3871    0.0000 </r>
       <r>   11.4686    0.0000 </r>
       <r>   11.8437    0.0000 </r>
       <r>   12.4293    0.0000 </r>
       <r>   13.5097    0.0000 </r>
      </set>
      <set comment="kpoint 8">
       <r>   -6.9074    1.0000 </r>
       <r>   -6.4479    1.0000 </r>
       <r>   -6.3801    1.0000 </r>
       <r>   -6.2874    1.0000 </r>
       <r>    0.1414    1.0000 </r>
       <r>    0.3526    1.0000 </r>
       <r>    0.4463    1.0000 </r>
       <r>    0.5244    1.0000 </r>
       <r>    0.5645    1.0000 </r>
       <r>    0.8828    1.0000 </r>
       <r>    0.8954    1.0000 </r>
       <r>    0.9769    1.0000 </r>
       <r>    1.0395    1.0000 </r>
       <r>    1.0842    1.0000 </r>
       <r>    1.2488    1.0000 </r>
       <r>    1.3460    1.0000 </r>
       <r>    1.3712    1.0000 </r>
       <r>    1.4221    1.0000 </r>
       <r>    1.5207    1.0000 </r>
       <r>    1.6753    1.0000 </r>
       <r>    1.6857    1.0000 </r>
       <r>    1.7714    1.0000 </r>
       <r>    1.8249    1.0000 </r>
       <r>    1.8765    1.0000 </r>
       <r>    1.9609    1.0000 </r>
       <r>    2.0183    1.0000 </r>
       <r>    2.0423    1.0000 </r>
       <r>    2.1514    1.0000 </r>
       <r>    2.1524    1.0000 </r>
       <r>    2.1770    1.0000 </r>
       <r>    2.2395    1.0000 </r>
       <r>    2.3665    1.0000 </r>
       <r>    2.3684    1.0000 </r>
       <r>    2.4452    1.0000 </r>
       <r>    2.5468    1.0000 </r>
       <r>    2.5620    1.0000 </r>
       <r>    2.6266    1.0000 </r>
       <r>    2.6339    1.0000 </r>
       <r>    2.7581    1.0000 </r>
       <r>    2.7799    1.0000 </r>
       <r>    2.8369    1.0000 </r>
       <r>    2.8909    1.0000 </r>
       <r>    2.9326    1.0000 </r>
       <r>    3.0994    1.0000 </r>
       <r>    3.1015    1.0000 </r>
       <r>    3.2100    1.0000 </r>
       <r>    3.2782    1.0000 </r>
       <r>    4.1033    1.0000 </r>
       <r>    4.4552    1.0000 </r>
       <r>    4.8652    1.0000 </r>
       <r>    4.9282    1.0000 </r>
       <r>    5.3806    1.0000 </r>
       <r>    5.9355    1.0000 </r>
       <r>    6.1255    1.0000 </r>
       <r>    6.3669    1.0140 </r>
       <r>    6.4070    1.0315 </r>
       <r>    6.7768   -0.0028 </r>
       <r>    7.7391   -0.0000 </r>
       <r>    8.5703   -0.0000 </r>
       <r>    9.0790   -0.0000 </r>
       <r>   10.2738    0.0000 </r>
       <r>   10.9942    0.0000 </r>
       <r>   11.2147    0.0000 </r>
       <r>   11.6834    0.0000 </r>
       <r>   11.8571    0.0000 </r>
       <r>   12.1261    0.0000 </r>
       <r>   12.6506    0.0000 </r>
       <r>   12.9733    0.0000 </r>
      </set>
      <set comment="kpoint 9">
       <r>   -6.8860    1.0000 </r>
       <r>   -6.4448    1.0000 </r>
       <r>   -6.3727    1.0000 </r>
       <r>   -6.2857    1.0000 </r>
       <r>    0.1572    1.0000 </r>
       <r>    0.3661    1.0000 </r>
       <r>    0.4197    1.0000 </r>
       <r>    0.5280    1.0000 </r>
       <r>    0.6472    1.0000 </r>
       <r>    0.8112    1.0000 </r>
       <r>    0.9402    1.0000 </r>
       <r>    0.9739    1.0000 </r>
       <r>    1.0461    1.0000 </r>
       <r>    1.1081    1.0000 </r>
       <r>    1.2764    1.0000 </r>
       <r>    1.3443    1.0000 </r>
       <r>    1.3576    1.0000 </r>
       <r>    1.4430    1.0000 </r>
       <r>    1.5258    1.0000 </r>
       <r>    1.6534    1.0000 </r>
       <r>    1.6849    1.0000 </r>
       <r>    1.7264    1.0000 </r>
       <r>    1.7836    1.0000 </r>
       <r>    1.8803    1.0000 </r>
       <r>    1.9868    1.0000 </r>
       <r>    2.0167    1.0000 </r>
       <r>    2.0350    1.0000 </r>
       <r>    2.0885    1.0000 </r>
       <r>    2.1548    1.0000 </r>
       <r>    2.2292    1.0000 </r>
       <r>    2.2674    1.0000 </r>
       <r>    2.3544    1.0000 </r>
       <r>    2.3964    1.0000 </r>
       <r>    2.4454    1.0000 </r>
       <r>    2.5243    1.0000 </r>
       <r>    2.5615    1.0000 </r>
       <r>    2.6124    1.0000 </r>
       <r>    2.6618    1.0000 </r>
       <r>    2.7386    1.0000 </r>
       <r>    2.7684    1.0000 </r>
       <r>    2.8225    1.0000 </r>
       <r>    2.8709    1.0000 </r>
       <r>    2.9008    1.0000 </r>
       <r>    3.0356    1.0000 </r>
       <r>    3.1943    1.0000 </r>
       <r>    3.2472    1.0000 </r>
       <r>    3.3073    1.0000 </r>
       <r>    4.1297    1.0000 </r>
       <r>    4.4052    1.0000 </r>
       <r>    4.6991    1.0000 </r>
       <r>    4.9357    1.0000 </r>
       <r>    5.3352    1.0000 </r>
       <r>    5.6962    1.0000 </r>
       <r>    6.0106    1.0000 </r>
       <r>    6.3201    1.0029 </r>
       <r>    6.4480    1.0250 </r>
       <r>    6.8814   -0.0000 </r>
       <r>    8.0266   -0.0000 </r>
       <r>    8.7257   -0.0000 </r>
       <r>    9.2829    0.0000 </r>
       <r>   10.3144    0.0000 </r>
       <r>   10.9281    0.0000 </r>
       <r>   11.0969    0.0000 </r>
       <r>   11.4650    0.0000 </r>
       <r>   11.7151    0.0000 </r>
       <r>   11.8845    0.0000 </r>
       <r>   12.4964    0.0000 </r>
       <r>   12.8902    0.0000 </r>
      </set>
      <set comment="kpoint 10">
       <r>   -6.8249    1.0000 </r>
       <r>   -6.4357    1.0000 </r>
       <r>   -6.3535    1.0000 </r>
       <r>   -6.2808    1.0000 </r>
       <r>    0.1971    1.0000 </r>
       <r>    0.3612    1.0000 </r>
       <r>    0.4702    1.0000 </r>
       <r>    0.5381    1.0000 </r>
       <r>    0.6969    1.0000 </r>
       <r>    0.8015    1.0000 </r>
       <r>    0.9268    1.0000 </r>
       <r>    1.0078    1.0000 </r>
       <r>    1.0763    1.0000 </r>
       <r>    1.1705    1.0000 </r>
       <r>    1.2950    1.0000 </r>
       <r>    1.3381    1.0000 </r>
       <r>    1.3675    1.0000 </r>
       <r>    1.4767    1.0000 </r>
       <r>    1.5377    1.0000 </r>
       <r>    1.6048    1.0000 </r>
       <r>    1.6623    1.0000 </r>
       <r>    1.6963    1.0000 </r>
       <r>    1.7460    1.0000 </r>
       <r>    1.8611    1.0000 </r>
       <r>    1.9094    1.0000 </r>
       <r>    1.9813    1.0000 </r>
       <r>    2.0618    1.0000 </r>
       <r>    2.1103    1.0000 </r>
       <r>    2.1645    1.0000 </r>
       <r>    2.2494    1.0000 </r>
       <r>    2.3391    1.0000 </r>
       <r>    2.3763    1.0000 </r>
       <r>    2.3975    1.0000 </r>
       <r>    2.4363    1.0000 </r>
       <r>    2.4933    1.0000 </r>
       <r>    2.5496    1.0000 </r>
       <r>    2.5912    1.0000 </r>
       <r>    2.6773    1.0000 </r>
       <r>    2.7042    1.0000 </r>
       <r>    2.7365    1.0000 </r>
       <r>    2.7702    1.0000 </r>
       <r>    2.8408    1.0000 </r>
       <r>    2.8733    1.0000 </r>
       <r>    3.0112    1.0000 </r>
       <r>    3.2387    1.0000 </r>
       <r>    3.3388    1.0000 </r>
       <r>    3.3978    1.0000 </r>
       <r>    4.0875    1.0000 </r>
       <r>    4.2701    1.0000 </r>
       <r>    4.4819    1.0000 </r>
       <r>    4.8631    1.0000 </r>
       <r>    5.0673    1.0000 </r>
       <r>    5.5571    1.0000 </r>
       <r>    5.7082    1.0000 </r>
       <r>    6.2178    1.0000 </r>
       <r>    6.4258    1.0355 </r>
       <r>    7.2136   -0.0000 </r>
       <r>    8.6052   -0.0000 </r>
       <r>    8.9961   -0.0000 </r>
       <r>    9.5954    0.0000 </r>
       <r>   10.3226    0.0000 </r>
       <r>   10.7179    0.0000 </r>
       <r>   10.8213    0.0000 </r>
       <r>   11.1373    0.0000 </r>
       <r>   11.3270    0.0000 </r>
       <r>   11.6197    0.0000 </r>
       <r>   12.1009    0.0000 </r>
       <r>   12.7813    0.0000 </r>
      </set>
      <set comment="kpoint 11">
       <r>   -6.7329    1.0000 </r>
       <r>   -6.4213    1.0000 </r>
       <r>   -6.3310    1.0000 </r>
       <r>   -6.2733    1.0000 </r>
       <r>    0.2418    1.0000 </r>
       <r>    0.3852    1.0000 </r>
       <r>    0.4580    1.0000 </r>
       <r>    0.5873    1.0000 </r>
       <r>    0.6964    1.0000 </r>
       <r>    0.8365    1.0000 </r>
       <r>    0.9028    1.0000 </r>
       <r>    1.0443    1.0000 </r>
       <r>    1.1504    1.0000 </r>
       <r>    1.2300    1.0000 </r>
       <r>    1.2651    1.0000 </r>
       <r>    1.3192    1.0000 </r>
       <r>    1.4315    1.0000 </r>
       <r>    1.4826    1.0000 </r>
       <r>    1.5538    1.0000 </r>
       <r>    1.6003    1.0000 </r>
       <r>    1.6733    1.0000 </r>
       <r>    1.7167    1.0000 </r>
       <r>    1.7348    1.0000 </r>
       <r>    1.8065    1.0000 </r>
       <r>    1.8747    1.0000 </r>
       <r>    1.9597    1.0000 </r>
       <r>    2.0644    1.0000 </r>
       <r>    2.1170    1.0000 </r>
       <r>    2.2178    1.0000 </r>
       <r>    2.2650    1.0000 </r>
       <r>    2.3323    1.0000 </r>
       <r>    2.3692    1.0000 </r>
       <r>    2.3864    1.0000 </r>
       <r>    2.4394    1.0000 </r>
       <r>    2.5071    1.0000 </r>
       <r>    2.5183    1.0000 </r>
       <r>    2.5564    1.0000 </r>
       <r>    2.6277    1.0000 </r>
       <r>    2.6541    1.0000 </r>
       <r>    2.6894    1.0000 </r>
       <r>    2.7675    1.0000 </r>
       <r>    2.8185    1.0000 </r>
       <r>    2.8855    1.0000 </r>
       <r>    3.0010    1.0000 </r>
       <r>    3.2448    1.0000 </r>
       <r>    3.3830    1.0000 </r>
       <r>    3.5098    1.0000 </r>
       <r>    3.8668    1.0000 </r>
       <r>    4.1915    1.0000 </r>
       <r>    4.3127    1.0000 </r>
       <r>    4.5267    1.0000 </r>
       <r>    5.0641    1.0000 </r>
       <r>    5.4299    1.0000 </r>
       <r>    5.6028    1.0000 </r>
       <r>    6.0567    1.0000 </r>
       <r>    6.3477    1.0079 </r>
       <r>    7.6272   -0.0000 </r>
       <r>    8.8647   -0.0000 </r>
       <r>    9.2421   -0.0000 </r>
       <r>    9.4729    0.0000 </r>
       <r>    9.8832    0.0000 </r>
       <r>   10.4934    0.0000 </r>
       <r>   10.6198    0.0000 </r>
       <r>   11.0604    0.0000 </r>
       <r>   11.3166    0.0000 </r>
       <r>   11.7397    0.0000 </r>
       <r>   11.8217    0.0000 </r>
       <r>   12.6065    0.0000 </r>
      </set>
      <set comment="kpoint 12">
       <r>   -6.6241    1.0000 </r>
       <r>   -6.4041    1.0000 </r>
       <r>   -6.3180    1.0000 </r>
       <r>   -6.2629    1.0000 </r>
       <r>    0.2771    1.0000 </r>
       <r>    0.3601    1.0000 </r>
       <r>    0.4304    1.0000 </r>
       <r>    0.6270    1.0000 </r>
       <r>    0.7307    1.0000 </r>
       <r>    0.8311    1.0000 </r>
       <r>    0.9382    1.0000 </r>
       <r>    1.0737    1.0000 </r>
       <r>    1.1607    1.0000 </r>
       <r>    1.1839    1.0000 </r>
       <r>    1.2697    1.0000 </r>
       <r>    1.3512    1.0000 </r>
       <r>    1.4756    1.0000 </r>
       <r>    1.5158    1.0000 </r>
       <r>    1.6238    1.0000 </r>
       <r>    1.6363    1.0000 </r>
       <r>    1.6914    1.0000 </r>
       <r>    1.7600    1.0000 </r>
       <r>    1.7764    1.0000 </r>
       <r>    1.7991    1.0000 </r>
       <r>    1.8933    1.0000 </r>
       <r>    1.9717    1.0000 </r>
       <r>    2.0658    1.0000 </r>
       <r>    2.1119    1.0000 </r>
       <r>    2.2378    1.0000 </r>
       <r>    2.2548    1.0000 </r>
       <r>    2.2703    1.0000 </r>
       <r>    2.3229    1.0000 </r>
       <r>    2.3729    1.0000 </r>
       <r>    2.4579    1.0000 </r>
       <r>    2.4728    1.0000 </r>
       <r>    2.5107    1.0000 </r>
       <r>    2.5341    1.0000 </r>
       <r>    2.5761    1.0000 </r>
       <r>    2.6218    1.0000 </r>
       <r>    2.6569    1.0000 </r>
       <r>    2.7260    1.0000 </r>
       <r>    2.7958    1.0000 </r>
       <r>    2.8935    1.0000 </r>
       <r>    2.9918    1.0000 </r>
       <r>    3.2126    1.0000 </r>
       <r>    3.2982    1.0000 </r>
       <r>    3.6082    1.0000 </r>
       <r>    3.7663    1.0000 </r>
       <r>    4.0903    1.0000 </r>
       <r>    4.1716    1.0000 </r>
       <r>    4.4410    1.0000 </r>
       <r>    4.9181    1.0000 </r>
       <r>    5.4913    1.0000 </r>
       <r>    5.6164    1.0000 </r>
       <r>    5.8574    1.0000 </r>
       <r>    6.2308    1.0000 </r>
       <r>    7.9953   -0.0000 </r>
       <r>    8.4545   -0.0000 </r>
       <r>    8.9994   -0.0000 </r>
       <r>    9.2339   -0.0000 </r>
       <r>    9.6200    0.0000 </r>
       <r>   10.4054    0.0000 </r>
       <r>   10.6059    0.0000 </r>
       <r>   10.9730    0.0000 </r>
       <r>   11.5671    0.0000 </r>
       <r>   11.7048    0.0000 </r>
       <r>   12.1885    0.0000 </r>
       <r>   12.7097    0.0000 </r>
      </set>
      <set comment="kpoint 13">
       <r>   -6.5161    1.0000 </r>
       <r>   -6.3883    1.0000 </r>
       <r>   -6.3242    1.0000 </r>
       <r>   -6.2529    1.0000 </r>
       <r>    0.2790    1.0000 </r>
       <r>    0.3016    1.0000 </r>
       <r>    0.4243    1.0000 </r>
       <r>    0.6017    1.0000 </r>
       <r>    0.7803    1.0000 </r>
       <r>    0.8513    1.0000 </r>
       <r>    0.9825    1.0000 </r>
       <r>    1.0843    1.0000 </r>
       <r>    1.1088    1.0000 </r>
       <r>    1.2208    1.0000 </r>
       <r>    1.2696    1.0000 </r>
       <r>    1.3783    1.0000 </r>
       <r>    1.4975    1.0000 </r>
       <r>    1.5559    1.0000 </r>
       <r>    1.6541    1.0000 </r>
       <r>    1.6963    1.0000 </r>
       <r>    1.7239    1.0000 </r>
       <r>    1.7853    1.0000 </r>
       <r>    1.8405    1.0000 </r>
       <r>    1.9075    1.0000 </r>
       <r>    1.9389    1.0000 </r>
       <r>    2.0000    1.0000 </r>
       <r>    2.0313    1.0000 </r>
       <r>    2.1153    1.0000 </r>
       <r>    2.1921    1.0000 </r>
       <r>    2.2241    1.0000 </r>
       <r>    2.2371    1.0000 </r>
       <r>    2.2883    1.0000 </r>
       <r>    2.3520    1.0000 </r>
       <r>    2.4278    1.0000 </r>
       <r>    2.4540    1.0000 </r>
       <r>    2.4698    1.0000 </r>
       <r>    2.5018    1.0000 </r>
       <r>    2.5758    1.0000 </r>
       <r>    2.5912    1.0000 </r>
       <r>    2.6427    1.0000 </r>
       <r>    2.6852    1.0000 </r>
       <r>    2.7636    1.0000 </r>
       <r>    2.8158    1.0000 </r>
       <r>    2.9687    1.0000 </r>
       <r>    3.1479    1.0000 </r>
       <r>    3.2716    1.0000 </r>
       <r>    3.5788    1.0000 </r>
       <r>    3.9042    1.0000 </r>
       <r>    3.9763    1.0000 </r>
       <r>    4.2087    1.0000 </r>
       <r>    4.4332    1.0000 </r>
       <r>    4.8632    1.0000 </r>
       <r>    5.3487    1.0000 </r>
       <r>    5.6874    1.0000 </r>
       <r>    5.7868    1.0000 </r>
       <r>    6.0868    1.0000 </r>
       <r>    7.9932   -0.0000 </r>
       <r>    8.2995   -0.0000 </r>
       <r>    8.4752   -0.0000 </r>
       <r>    8.8383   -0.0000 </r>
       <r>    9.5776    0.0000 </r>
       <r>   10.3456    0.0000 </r>
       <r>   10.8037    0.0000 </r>
       <r>   11.1892    0.0000 </r>
       <r>   11.5442    0.0000 </r>
       <r>   11.8981    0.0000 </r>
       <r>   12.0888    0.0000 </r>
       <r>   13.1415    0.0000 </r>
      </set>
      <set comment="kpoint 14">
       <r>   -6.4285    1.0000 </r>
       <r>   -6.3784    1.0000 </r>
       <r>   -6.3526    1.0000 </r>
       <r>   -6.2481    1.0000 </r>
       <r>    0.2347    1.0000 </r>
       <r>    0.3158    1.0000 </r>
       <r>    0.3901    1.0000 </r>
       <r>    0.5682    1.0000 </r>
       <r>    0.8339    1.0000 </r>
       <r>    0.8712    1.0000 </r>
       <r>    0.9856    1.0000 </r>
       <r>    1.0314    1.0000 </r>
       <r>    1.1666    1.0000 </r>
       <r>    1.2628    1.0000 </r>
       <r>    1.2988    1.0000 </r>
       <r>    1.3712    1.0000 </r>
       <r>    1.4921    1.0000 </r>
       <r>    1.6045    1.0000 </r>
       <r>    1.6582    1.0000 </r>
       <r>    1.7280    1.0000 </r>
       <r>    1.7445    1.0000 </r>
       <r>    1.7936    1.0000 </r>
       <r>    1.9029    1.0000 </r>
       <r>    1.9461    1.0000 </r>
       <r>    1.9847    1.0000 </r>
       <r>    2.0058    1.0000 </r>
       <r>    2.0251    1.0000 </r>
       <r>    2.1148    1.0000 </r>
       <r>    2.1504    1.0000 </r>
       <r>    2.2126    1.0000 </r>
       <r>    2.2498    1.0000 </r>
       <r>    2.2564    1.0000 </r>
       <r>    2.3166    1.0000 </r>
       <r>    2.3760    1.0000 </r>
       <r>    2.4162    1.0000 </r>
       <r>    2.4474    1.0000 </r>
       <r>    2.5032    1.0000 </r>
       <r>    2.5542    1.0000 </r>
       <r>    2.5611    1.0000 </r>
       <r>    2.6394    1.0000 </r>
       <r>    2.6861    1.0000 </r>
       <r>    2.7188    1.0000 </r>
       <r>    2.8091    1.0000 </r>
       <r>    2.9263    1.0000 </r>
       <r>    3.0994    1.0000 </r>
       <r>    3.3384    1.0000 </r>
       <r>    3.4885    1.0000 </r>
       <r>    3.9693    1.0000 </r>
       <r>    4.1093    1.0000 </r>
       <r>    4.2314    1.0000 </r>
       <r>    4.3580    1.0000 </r>
       <r>    4.9607    1.0000 </r>
       <r>    5.1290    1.0000 </r>
       <r>    5.7399    1.0000 </r>
       <r>    5.7846    1.0000 </r>
       <r>    5.9442    1.0000 </r>
       <r>    7.8130   -0.0000 </r>
       <r>    8.0617   -0.0000 </r>
       <r>    8.4574   -0.0000 </r>
       <r>    8.6848   -0.0000 </r>
       <r>    9.4439    0.0000 </r>
       <r>   10.3222    0.0000 </r>
       <r>   10.9696    0.0000 </r>
       <r>   11.3570    0.0000 </r>
       <r>   11.6486    0.0000 </r>
       <r>   11.8663    0.0000 </r>
       <r>   12.2255    0.0000 </r>
       <r>   12.7793    0.0000 </r>
      </set>
      <set comment="kpoint 15">
       <r>   -6.8307    1.0000 </r>
       <r>   -6.4658    1.0000 </r>
       <r>   -6.4215    1.0000 </r>
       <r>   -6.3106    1.0000 </r>
       <r>    0.1742    1.0000 </r>
       <r>    0.2908    1.0000 </r>
       <r>    0.3833    1.0000 </r>
       <r>    0.6046    1.0000 </r>
       <r>    0.6279    1.0000 </r>
       <r>    0.7629    1.0000 </r>
       <r>    0.8927    1.0000 </r>
       <r>    0.9541    1.0000 </r>
       <r>    1.0811    1.0000 </r>
       <r>    1.0945    1.0000 </r>
       <r>    1.1778    1.0000 </r>
       <r>    1.2026    1.0000 </r>
       <r>    1.3864    1.0000 </r>
       <r>    1.4030    1.0000 </r>
       <r>    1.5666    1.0000 </r>
       <r>    1.5879    1.0000 </r>
       <r>    1.7213    1.0000 </r>
       <r>    1.7759    1.0000 </r>
       <r>    1.7988    1.0000 </r>
       <r>    1.8402    1.0000 </r>
       <r>    2.0134    1.0000 </r>
       <r>    2.0278    1.0000 </r>
       <r>    2.1226    1.0000 </r>
       <r>    2.1402    1.0000 </r>
       <r>    2.1861    1.0000 </r>
       <r>    2.2328    1.0000 </r>
       <r>    2.2410    1.0000 </r>
       <r>    2.3554    1.0000 </r>
       <r>    2.4117    1.0000 </r>
       <r>    2.4499    1.0000 </r>
       <r>    2.5234    1.0000 </r>
       <r>    2.5422    1.0000 </r>
       <r>    2.5844    1.0000 </r>
       <r>    2.6561    1.0000 </r>
       <r>    2.7702    1.0000 </r>
       <r>    2.7781    1.0000 </r>
       <r>    2.8055    1.0000 </r>
       <r>    2.8840    1.0000 </r>
       <r>    2.8934    1.0000 </r>
       <r>    3.0219    1.0000 </r>
       <r>    3.0789    1.0000 </r>
       <r>    3.1879    1.0000 </r>
       <r>    3.3638    1.0000 </r>
       <r>    4.3839    1.0000 </r>
       <r>    4.6624    1.0000 </r>
       <r>    4.9442    1.0000 </r>
       <r>    5.1185    1.0000 </r>
       <r>    5.4156    1.0000 </r>
       <r>    5.8843    1.0000 </r>
       <r>    6.0516    1.0000 </r>
       <r>    6.3199    1.0029 </r>
       <r>    6.3314    1.0045 </r>
       <r>    7.1711   -0.0000 </r>
       <r>    7.7728   -0.0000 </r>
       <r>    7.9815   -0.0000 </r>
       <r>    8.6252   -0.0000 </r>
       <r>   10.7621    0.0000 </r>
       <r>   11.0445    0.0000 </r>
       <r>   11.2722    0.0000 </r>
       <r>   11.6258    0.0000 </r>
       <r>   11.8004    0.0000 </r>
       <r>   12.0572    0.0000 </r>
       <r>   12.2173    0.0000 </r>
       <r>   12.5027    0.0000 </r>
      </set>
      <set comment="kpoint 16">
       <r>   -6.8112    1.0000 </r>
       <r>   -6.4562    1.0000 </r>
       <r>   -6.4184    1.0000 </r>
       <r>   -6.3085    1.0000 </r>
       <r>    0.1887    1.0000 </r>
       <r>    0.3217    1.0000 </r>
       <r>    0.3789    1.0000 </r>
       <r>    0.6076    1.0000 </r>
       <r>    0.6491    1.0000 </r>
       <r>    0.7166    1.0000 </r>
       <r>    0.9265    1.0000 </r>
       <r>    0.9743    1.0000 </r>
       <r>    1.0742    1.0000 </r>
       <r>    1.1116    1.0000 </r>
       <r>    1.1869    1.0000 </r>
       <r>    1.2091    1.0000 </r>
       <r>    1.3554    1.0000 </r>
       <r>    1.4483    1.0000 </r>
       <r>    1.5603    1.0000 </r>
       <r>    1.6004    1.0000 </r>
       <r>    1.6834    1.0000 </r>
       <r>    1.7601    1.0000 </r>
       <r>    1.8155    1.0000 </r>
       <r>    1.8729    1.0000 </r>
       <r>    1.9606    1.0000 </r>
       <r>    2.0329    1.0000 </r>
       <r>    2.0896    1.0000 </r>
       <r>    2.1576    1.0000 </r>
       <r>    2.1706    1.0000 </r>
       <r>    2.2163    1.0000 </r>
       <r>    2.2740    1.0000 </r>
       <r>    2.3632    1.0000 </r>
       <r>    2.4236    1.0000 </r>
       <r>    2.4486    1.0000 </r>
       <r>    2.5083    1.0000 </r>
       <r>    2.5358    1.0000 </r>
       <r>    2.5946    1.0000 </r>
       <r>    2.6504    1.0000 </r>
       <r>    2.7474    1.0000 </r>
       <r>    2.7727    1.0000 </r>
       <r>    2.7995    1.0000 </r>
       <r>    2.8358    1.0000 </r>
       <r>    2.9119    1.0000 </r>
       <r>    3.0131    1.0000 </r>
       <r>    3.0641    1.0000 </r>
       <r>    3.2129    1.0000 </r>
       <r>    3.4295    1.0000 </r>
       <r>    4.3634    1.0000 </r>
       <r>    4.6262    1.0000 </r>
       <r>    4.8349    1.0000 </r>
       <r>    5.0917    1.0000 </r>
       <r>    5.3651    1.0000 </r>
       <r>    5.6987    1.0000 </r>
       <r>    5.9176    1.0000 </r>
       <r>    6.2313    1.0000 </r>
       <r>    6.3653    1.0135 </r>
       <r>    7.2936   -0.0000 </r>
       <r>    8.0163   -0.0000 </r>
       <r>    8.1843   -0.0000 </r>
       <r>    8.8330   -0.0000 </r>
       <r>   10.7876    0.0000 </r>
       <r>   10.9781    0.0000 </r>
       <r>   11.2142    0.0000 </r>
       <r>   11.4032    0.0000 </r>
       <r>   11.6868    0.0000 </r>
       <r>   11.8602    0.0000 </r>
       <r>   12.1001    0.0000 </r>
       <r>   12.3529    0.0000 </r>
      </set>
      <set comment="kpoint 17">
       <r>   -6.7555    1.0000 </r>
       <r>   -6.4304    1.0000 </r>
       <r>   -6.4092    1.0000 </r>
       <r>   -6.3029    1.0000 </r>
       <r>    0.2206    1.0000 </r>
       <r>    0.3694    1.0000 </r>
       <r>    0.4178    1.0000 </r>
       <r>    0.5455    1.0000 </r>
       <r>    0.6639    1.0000 </r>
       <r>    0.7727    1.0000 </r>
       <r>    0.9495    1.0000 </r>
       <r>    0.9963    1.0000 </r>
       <r>    1.0893    1.0000 </r>
       <r>    1.1490    1.0000 </r>
       <r>    1.1850    1.0000 </r>
       <r>    1.2490    1.0000 </r>
       <r>    1.3496    1.0000 </r>
       <r>    1.4917    1.0000 </r>
       <r>    1.5518    1.0000 </r>
       <r>    1.6089    1.0000 </r>
       <r>    1.6382    1.0000 </r>
       <r>    1.7377    1.0000 </r>
       <r>    1.8077    1.0000 </r>
       <r>    1.8818    1.0000 </r>
       <r>    1.9430    1.0000 </r>
       <r>    1.9953    1.0000 </r>
       <r>    2.0283    1.0000 </r>
       <r>    2.1420    1.0000 </r>
       <r>    2.1986    1.0000 </r>
       <r>    2.2287    1.0000 </r>
       <r>    2.3064    1.0000 </r>
       <r>    2.3820    1.0000 </r>
       <r>    2.4168    1.0000 </r>
       <r>    2.4553    1.0000 </r>
       <r>    2.4862    1.0000 </r>
       <r>    2.5319    1.0000 </r>
       <r>    2.5948    1.0000 </r>
       <r>    2.6307    1.0000 </r>
       <r>    2.7011    1.0000 </r>
       <r>    2.7347    1.0000 </r>
       <r>    2.7684    1.0000 </r>
       <r>    2.8085    1.0000 </r>
       <r>    2.8757    1.0000 </r>
       <r>    2.9929    1.0000 </r>
       <r>    3.1221    1.0000 </r>
       <r>    3.2771    1.0000 </r>
       <r>    3.5383    1.0000 </r>
       <r>    4.1879    1.0000 </r>
       <r>    4.5182    1.0000 </r>
       <r>    4.6407    1.0000 </r>
       <r>    5.0224    1.0000 </r>
       <r>    5.0977    1.0000 </r>
       <r>    5.5598    1.0000 </r>
       <r>    5.6618    1.0000 </r>
       <r>    6.1491    1.0000 </r>
       <r>    6.3712    1.0157 </r>
       <r>    7.5587   -0.0000 </r>
       <r>    8.4846   -0.0000 </r>
       <r>    8.6230   -0.0000 </r>
       <r>    9.2363   -0.0000 </r>
       <r>   10.5527    0.0000 </r>
       <r>   10.7710    0.0000 </r>
       <r>   10.8781    0.0000 </r>
       <r>   11.1091    0.0000 </r>
       <r>   11.4715    0.0000 </r>
       <r>   11.6523    0.0000 </r>
       <r>   11.7994    0.0000 </r>
       <r>   12.2689    0.0000 </r>
      </set>
      <set comment="kpoint 18">
       <r>   -6.6725    1.0000 </r>
       <r>   -6.4004    1.0000 </r>
       <r>   -6.3910    1.0000 </r>
       <r>   -6.2948    1.0000 </r>
       <r>    0.2410    1.0000 </r>
       <r>    0.3898    1.0000 </r>
       <r>    0.4260    1.0000 </r>
       <r>    0.5638    1.0000 </r>
       <r>    0.7094    1.0000 </r>
       <r>    0.8446    1.0000 </r>
       <r>    0.9682    1.0000 </r>
       <r>    0.9893    1.0000 </r>
       <r>    1.1184    1.0000 </r>
       <r>    1.1751    1.0000 </r>
       <r>    1.2089    1.0000 </r>
       <r>    1.2838    1.0000 </r>
       <r>    1.4059    1.0000 </r>
       <r>    1.5061    1.0000 </r>
       <r>    1.5266    1.0000 </r>
       <r>    1.5937    1.0000 </r>
       <r>    1.6772    1.0000 </r>
       <r>    1.7078    1.0000 </r>
       <r>    1.7702    1.0000 </r>
       <r>    1.8513    1.0000 </r>
       <r>    1.8847    1.0000 </r>
       <r>    1.9878    1.0000 </r>
       <r>    2.0474    1.0000 </r>
       <r>    2.1195    1.0000 </r>
       <r>    2.2217    1.0000 </r>
       <r>    2.2591    1.0000 </r>
       <r>    2.3174    1.0000 </r>
       <r>    2.3682    1.0000 </r>
       <r>    2.4068    1.0000 </r>
       <r>    2.4479    1.0000 </r>
       <r>    2.4893    1.0000 </r>
       <r>    2.5270    1.0000 </r>
       <r>    2.5692    1.0000 </r>
       <r>    2.6134    1.0000 </r>
       <r>    2.6471    1.0000 </r>
       <r>    2.6945    1.0000 </r>
       <r>    2.7164    1.0000 </r>
       <r>    2.7831    1.0000 </r>
       <r>    2.8681    1.0000 </r>
       <r>    3.0076    1.0000 </r>
       <r>    3.1935    1.0000 </r>
       <r>    3.3447    1.0000 </r>
       <r>    3.6045    1.0000 </r>
       <r>    3.9391    1.0000 </r>
       <r>    4.2604    1.0000 </r>
       <r>    4.4592    1.0000 </r>
       <r>    4.7707    1.0000 </r>
       <r>    4.9429    1.0000 </r>
       <r>    5.5113    1.0000 </r>
       <r>    5.6600    1.0000 </r>
       <r>    6.0699    1.0000 </r>
       <r>    6.3317    1.0046 </r>
       <r>    7.7854   -0.0000 </r>
       <r>    8.7579   -0.0000 </r>
       <r>    9.0595   -0.0000 </r>
       <r>    9.4245    0.0000 </r>
       <r>   10.1034    0.0000 </r>
       <r>   10.3488    0.0000 </r>
       <r>   10.5545    0.0000 </r>
       <r>   10.8954    0.0000 </r>
       <r>   11.3249    0.0000 </r>
       <r>   11.5955    0.0000 </r>
       <r>   11.8790    0.0000 </r>
       <r>   12.3614    0.0000 </r>
      </set>
      <set comment="kpoint 19">
       <r>   -6.5761    1.0000 </r>
       <r>   -6.3824    1.0000 </r>
       <r>   -6.3628    1.0000 </r>
       <r>   -6.2850    1.0000 </r>
       <r>    0.2437    1.0000 </r>
       <r>    0.3005    1.0000 </r>
       <r>    0.4789    1.0000 </r>
       <r>    0.6444    1.0000 </r>
       <r>    0.7740    1.0000 </r>
       <r>    0.8224    1.0000 </r>
       <r>    0.9808    1.0000 </r>
       <r>    1.0560    1.0000 </r>
       <r>    1.1174    1.0000 </r>
       <r>    1.1703    1.0000 </r>
       <r>    1.2254    1.0000 </r>
       <r>    1.3417    1.0000 </r>
       <r>    1.4711    1.0000 </r>
       <r>    1.5123    1.0000 </r>
       <r>    1.5654    1.0000 </r>
       <r>    1.6128    1.0000 </r>
       <r>    1.6824    1.0000 </r>
       <r>    1.7237    1.0000 </r>
       <r>    1.7645    1.0000 </r>
       <r>    1.8162    1.0000 </r>
       <r>    1.8659    1.0000 </r>
       <r>    1.9908    1.0000 </r>
       <r>    2.0611    1.0000 </r>
       <r>    2.1225    1.0000 </r>
       <r>    2.2256    1.0000 </r>
       <r>    2.2502    1.0000 </r>
       <r>    2.2878    1.0000 </r>
       <r>    2.3284    1.0000 </r>
       <r>    2.4022    1.0000 </r>
       <r>    2.4246    1.0000 </r>
       <r>    2.4754    1.0000 </r>
       <r>    2.5099    1.0000 </r>
       <r>    2.5446    1.0000 </r>
       <r>    2.5921    1.0000 </r>
       <r>    2.6294    1.0000 </r>
       <r>    2.6706    1.0000 </r>
       <r>    2.6962    1.0000 </r>
       <r>    2.7685    1.0000 </r>
       <r>    2.8564    1.0000 </r>
       <r>    3.0134    1.0000 </r>
       <r>    3.2271    1.0000 </r>
       <r>    3.2913    1.0000 </r>
       <r>    3.6293    1.0000 </r>
       <r>    3.8173    1.0000 </r>
       <r>    4.0940    1.0000 </r>
       <r>    4.2514    1.0000 </r>
       <r>    4.6707    1.0000 </r>
       <r>    4.8067    1.0000 </r>
       <r>    5.5565    1.0000 </r>
       <r>    5.6855    1.0000 </r>
       <r>    5.9832    1.0000 </r>
       <r>    6.2222    1.0000 </r>
       <r>    7.8804   -0.0000 </r>
       <r>    8.6392   -0.0000 </r>
       <r>    9.0473   -0.0000 </r>
       <r>    9.2409   -0.0000 </r>
       <r>    9.7362    0.0000 </r>
       <r>   10.3230    0.0000 </r>
       <r>   10.6359    0.0000 </r>
       <r>   10.8320    0.0000 </r>
       <r>   11.3802    0.0000 </r>
       <r>   11.5456    0.0000 </r>
       <r>   12.0448    0.0000 </r>
       <r>   12.5121    0.0000 </r>
      </set>
      <set comment="kpoint 20">
       <r>   -6.4833    1.0000 </r>
       <r>   -6.3681    1.0000 </r>
       <r>   -6.3497    1.0000 </r>
       <r>   -6.2749    1.0000 </r>
       <r>    0.2192    1.0000 </r>
       <r>    0.2468    1.0000 </r>
       <r>    0.5005    1.0000 </r>
       <r>    0.6738    1.0000 </r>
       <r>    0.7758    1.0000 </r>
       <r>    0.8436    1.0000 </r>
       <r>    1.0190    1.0000 </r>
       <r>    1.0412    1.0000 </r>
       <r>    1.1325    1.0000 </r>
       <r>    1.1818    1.0000 </r>
       <r>    1.2606    1.0000 </r>
       <r>    1.3873    1.0000 </r>
       <r>    1.5033    1.0000 </r>
       <r>    1.5574    1.0000 </r>
       <r>    1.5913    1.0000 </r>
       <r>    1.6541    1.0000 </r>
       <r>    1.7059    1.0000 </r>
       <r>    1.7452    1.0000 </r>
       <r>    1.7999    1.0000 </r>
       <r>    1.8610    1.0000 </r>
       <r>    1.8793    1.0000 </r>
       <r>    2.0207    1.0000 </r>
       <r>    2.0411    1.0000 </r>
       <r>    2.1148    1.0000 </r>
       <r>    2.2058    1.0000 </r>
       <r>    2.2120    1.0000 </r>
       <r>    2.2421    1.0000 </r>
       <r>    2.3114    1.0000 </r>
       <r>    2.3635    1.0000 </r>
       <r>    2.3966    1.0000 </r>
       <r>    2.4366    1.0000 </r>
       <r>    2.4829    1.0000 </r>
       <r>    2.5193    1.0000 </r>
       <r>    2.5894    1.0000 </r>
       <r>    2.6291    1.0000 </r>
       <r>    2.6588    1.0000 </r>
       <r>    2.7017    1.0000 </r>
       <r>    2.7603    1.0000 </r>
       <r>    2.8066    1.0000 </r>
       <r>    2.9951    1.0000 </r>
       <r>    3.0975    1.0000 </r>
       <r>    3.2676    1.0000 </r>
       <r>    3.5207    1.0000 </r>
       <r>    3.8908    1.0000 </r>
       <r>    4.0349    1.0000 </r>
       <r>    4.3320    1.0000 </r>
       <r>    4.6506    1.0000 </r>
       <r>    4.7629    1.0000 </r>
       <r>    5.4715    1.0000 </r>
       <r>    5.6365    1.0000 </r>
       <r>    5.9022    1.0000 </r>
       <r>    6.0829    1.0000 </r>
       <r>    7.9076   -0.0000 </r>
       <r>    8.3947   -0.0000 </r>
       <r>    8.6465   -0.0000 </r>
       <r>    9.0312   -0.0000 </r>
       <r>    9.4427    0.0000 </r>
       <r>   10.6783    0.0000 </r>
       <r>   10.8151    0.0000 </r>
       <r>   11.0394    0.0000 </r>
       <r>   11.4753    0.0000 </r>
       <r>   11.6153    0.0000 </r>
       <r>   12.1139    0.0000 </r>
       <r>   12.6620    0.0000 </r>
      </set>
      <set comment="kpoint 21">
       <r>   -6.4123    1.0000 </r>
       <r>   -6.3604    1.0000 </r>
       <r>   -6.3595    1.0000 </r>
       <r>   -6.2686    1.0000 </r>
       <r>    0.1817    1.0000 </r>
       <r>    0.2397    1.0000 </r>
       <r>    0.4899    1.0000 </r>
       <r>    0.6549    1.0000 </r>
       <r>    0.8149    1.0000 </r>
       <r>    0.8660    1.0000 </r>
       <r>    0.9735    1.0000 </r>
       <r>    1.0280    1.0000 </r>
       <r>    1.1456    1.0000 </r>
       <r>    1.2480    1.0000 </r>
       <r>    1.3082    1.0000 </r>
       <r>    1.3829    1.0000 </r>
       <r>    1.5270    1.0000 </r>
       <r>    1.5966    1.0000 </r>
       <r>    1.6136    1.0000 </r>
       <r>    1.6712    1.0000 </r>
       <r>    1.7077    1.0000 </r>
       <r>    1.7602    1.0000 </r>
       <r>    1.8329    1.0000 </r>
       <r>    1.9091    1.0000 </r>
       <r>    1.9444    1.0000 </r>
       <r>    1.9857    1.0000 </r>
       <r>    2.0621    1.0000 </r>
       <r>    2.1039    1.0000 </r>
       <r>    2.1706    1.0000 </r>
       <r>    2.2145    1.0000 </r>
       <r>    2.2397    1.0000 </r>
       <r>    2.2737    1.0000 </r>
       <r>    2.3382    1.0000 </r>
       <r>    2.3622    1.0000 </r>
       <r>    2.4051    1.0000 </r>
       <r>    2.4277    1.0000 </r>
       <r>    2.5286    1.0000 </r>
       <r>    2.5737    1.0000 </r>
       <r>    2.6110    1.0000 </r>
       <r>    2.6693    1.0000 </r>
       <r>    2.7047    1.0000 </r>
       <r>    2.7296    1.0000 </r>
       <r>    2.8259    1.0000 </r>
       <r>    2.9477    1.0000 </r>
       <r>    3.0412    1.0000 </r>
       <r>    3.2149    1.0000 </r>
       <r>    3.3988    1.0000 </r>
       <r>    3.9104    1.0000 </r>
       <r>    4.1866    1.0000 </r>
       <r>    4.4480    1.0000 </r>
       <r>    4.6306    1.0000 </r>
       <r>    4.9033    1.0000 </r>
       <r>    5.2791    1.0000 </r>
       <r>    5.4472    1.0000 </r>
       <r>    5.8884    1.0000 </r>
       <r>    5.9940    1.0000 </r>
       <r>    7.9353   -0.0000 </r>
       <r>    8.2616   -0.0000 </r>
       <r>    8.3958   -0.0000 </r>
       <r>    8.8653   -0.0000 </r>
       <r>    9.2748   -0.0000 </r>
       <r>   10.7904    0.0000 </r>
       <r>   11.1299    0.0000 </r>
       <r>   11.2931    0.0000 </r>
       <r>   11.5585    0.0000 </r>
       <r>   11.7961    0.0000 </r>
       <r>   11.9748    0.0000 </r>
       <r>   12.3000    0.0000 </r>
      </set>
      <set comment="kpoint 22">
       <r>   -6.7171    1.0000 </r>
       <r>   -6.5869    1.0000 </r>
       <r>   -6.3844    1.0000 </r>
       <r>   -6.3448    1.0000 </r>
       <r>    0.2044    1.0000 </r>
       <r>    0.2345    1.0000 </r>
       <r>    0.4173    1.0000 </r>
       <r>    0.5612    1.0000 </r>
       <r>    0.7378    1.0000 </r>
       <r>    0.7522    1.0000 </r>
       <r>    0.8704    1.0000 </r>
       <r>    0.8770    1.0000 </r>
       <r>    1.0407    1.0000 </r>
       <r>    1.0470    1.0000 </r>
       <r>    1.1494    1.0000 </r>
       <r>    1.1609    1.0000 </r>
       <r>    1.4257    1.0000 </r>
       <r>    1.4340    1.0000 </r>
       <r>    1.4761    1.0000 </r>
       <r>    1.5025    1.0000 </r>
       <r>    1.7069    1.0000 </r>
       <r>    1.7493    1.0000 </r>
       <r>    1.8748    1.0000 </r>
       <r>    1.8769    1.0000 </r>
       <r>    2.0091    1.0000 </r>
       <r>    2.0417    1.0000 </r>
       <r>    2.1388    1.0000 </r>
       <r>    2.1481    1.0000 </r>
       <r>    2.2685    1.0000 </r>
       <r>    2.2778    1.0000 </r>
       <r>    2.3068    1.0000 </r>
       <r>    2.3614    1.0000 </r>
       <r>    2.3694    1.0000 </r>
       <r>    2.4519    1.0000 </r>
       <r>    2.5023    1.0000 </r>
       <r>    2.5302    1.0000 </r>
       <r>    2.5969    1.0000 </r>
       <r>    2.6909    1.0000 </r>
       <r>    2.7182    1.0000 </r>
       <r>    2.7545    1.0000 </r>
       <r>    2.8068    1.0000 </r>
       <r>    2.8492    1.0000 </r>
       <r>    2.9235    1.0000 </r>
       <r>    2.9922    1.0000 </r>
       <r>    3.0167    1.0000 </r>
       <r>    3.0713    1.0000 </r>
       <r>    3.7265    1.0000 </r>
       <r>    4.1090    1.0000 </r>
       <r>    4.9974    1.0000 </r>
       <r>    5.1899    1.0000 </r>
       <r>    5.3394    1.0000 </r>
       <r>    5.4104    1.0000 </r>
       <r>    5.8468    1.0000 </r>
       <r>    5.9267    1.0000 </r>
       <r>    6.2781    1.0005 </r>
       <r>    6.3093    1.0019 </r>
       <r>    7.4229   -0.0000 </r>
       <r>    7.6620   -0.0000 </r>
       <r>    7.8949   -0.0000 </r>
       <r>    8.1869   -0.0000 </r>
       <r>   10.9735    0.0000 </r>
       <r>   10.9884    0.0000 </r>
       <r>   11.2085    0.0000 </r>
       <r>   11.3182    0.0000 </r>
       <r>   11.7467    0.0000 </r>
       <r>   11.9093    0.0000 </r>
       <r>   12.2488    0.0000 </r>
       <r>   12.2892    0.0000 </r>
      </set>
      <set comment="kpoint 23">
       <r>   -6.7004    1.0000 </r>
       <r>   -6.5737    1.0000 </r>
       <r>   -6.3818    1.0000 </r>
       <r>   -6.3425    1.0000 </r>
       <r>    0.2293    1.0000 </r>
       <r>    0.2684    1.0000 </r>
       <r>    0.4049    1.0000 </r>
       <r>    0.5274    1.0000 </r>
       <r>    0.7235    1.0000 </r>
       <r>    0.7714    1.0000 </r>
       <r>    0.8720    1.0000 </r>
       <r>    0.9345    1.0000 </r>
       <r>    1.0388    1.0000 </r>
       <r>    1.0620    1.0000 </r>
       <r>    1.1419    1.0000 </r>
       <r>    1.1646    1.0000 </r>
       <r>    1.3875    1.0000 </r>
       <r>    1.4480    1.0000 </r>
       <r>    1.5060    1.0000 </r>
       <r>    1.5542    1.0000 </r>
       <r>    1.7001    1.0000 </r>
       <r>    1.7434    1.0000 </r>
       <r>    1.8552    1.0000 </r>
       <r>    1.8905    1.0000 </r>
       <r>    1.9784    1.0000 </r>
       <r>    2.0169    1.0000 </r>
       <r>    2.1292    1.0000 </r>
       <r>    2.1553    1.0000 </r>
       <r>    2.2513    1.0000 </r>
       <r>    2.2818    1.0000 </r>
       <r>    2.3107    1.0000 </r>
       <r>    2.3530    1.0000 </r>
       <r>    2.3907    1.0000 </r>
       <r>    2.4342    1.0000 </r>
       <r>    2.4985    1.0000 </r>
       <r>    2.5255    1.0000 </r>
       <r>    2.5983    1.0000 </r>
       <r>    2.6840    1.0000 </r>
       <r>    2.7078    1.0000 </r>
       <r>    2.7482    1.0000 </r>
       <r>    2.7983    1.0000 </r>
       <r>    2.8369    1.0000 </r>
       <r>    2.9204    1.0000 </r>
       <r>    2.9774    1.0000 </r>
       <r>    3.0135    1.0000 </r>
       <r>    3.0862    1.0000 </r>
       <r>    3.7712    1.0000 </r>
       <r>    4.1222    1.0000 </r>
       <r>    4.9142    1.0000 </r>
       <r>    5.0729    1.0000 </r>
       <r>    5.2903    1.0000 </r>
       <r>    5.3998    1.0000 </r>
       <r>    5.6840    1.0000 </r>
       <r>    5.7712    1.0000 </r>
       <r>    6.2185    1.0000 </r>
       <r>    6.2859    1.0007 </r>
       <r>    7.5961   -0.0000 </r>
       <r>    7.8721   -0.0000 </r>
       <r>    8.1181   -0.0000 </r>
       <r>    8.4155   -0.0000 </r>
       <r>   10.8590    0.0000 </r>
       <r>   10.9696    0.0000 </r>
       <r>   11.1357    0.0000 </r>
       <r>   11.2156    0.0000 </r>
       <r>   11.6199    0.0000 </r>
       <r>   11.8776    0.0000 </r>
       <r>   11.9997    0.0000 </r>
       <r>   12.1907    0.0000 </r>
      </set>
      <set comment="kpoint 24">
       <r>   -6.6532    1.0000 </r>
       <r>   -6.5369    1.0000 </r>
       <r>   -6.3743    1.0000 </r>
       <r>   -6.3360    1.0000 </r>
       <r>    0.2678    1.0000 </r>
       <r>    0.3361    1.0000 </r>
       <r>    0.4118    1.0000 </r>
       <r>    0.4800    1.0000 </r>
       <r>    0.7211    1.0000 </r>
       <r>    0.8078    1.0000 </r>
       <r>    0.8991    1.0000 </r>
       <r>    1.0031    1.0000 </r>
       <r>    1.0353    1.0000 </r>
       <r>    1.0913    1.0000 </r>
       <r>    1.1540    1.0000 </r>
       <r>    1.1833    1.0000 </r>
       <r>    1.3776    1.0000 </r>
       <r>    1.4577    1.0000 </r>
       <r>    1.5482    1.0000 </r>
       <r>    1.6084    1.0000 </r>
       <r>    1.6791    1.0000 </r>
       <r>    1.7407    1.0000 </r>
       <r>    1.8272    1.0000 </r>
       <r>    1.8792    1.0000 </r>
       <r>    1.9343    1.0000 </r>
       <r>    1.9628    1.0000 </r>
       <r>    2.0923    1.0000 </r>
       <r>    2.1655    1.0000 </r>
       <r>    2.2414    1.0000 </r>
       <r>    2.2724    1.0000 </r>
       <r>    2.3162    1.0000 </r>
       <r>    2.3457    1.0000 </r>
       <r>    2.4093    1.0000 </r>
       <r>    2.4414    1.0000 </r>
       <r>    2.4834    1.0000 </r>
       <r>    2.5062    1.0000 </r>
       <r>    2.6075    1.0000 </r>
       <r>    2.6582    1.0000 </r>
       <r>    2.6831    1.0000 </r>
       <r>    2.7252    1.0000 </r>
       <r>    2.7773    1.0000 </r>
       <r>    2.7981    1.0000 </r>
       <r>    2.8927    1.0000 </r>
       <r>    2.9471    1.0000 </r>
       <r>    3.0664    1.0000 </r>
       <r>    3.1429    1.0000 </r>
       <r>    3.8368    1.0000 </r>
       <r>    4.0931    1.0000 </r>
       <r>    4.6516    1.0000 </r>
       <r>    4.7872    1.0000 </r>
       <r>    5.1850    1.0000 </r>
       <r>    5.2619    1.0000 </r>
       <r>    5.4813    1.0000 </r>
       <r>    5.5924    1.0000 </r>
       <r>    6.1473    1.0000 </r>
       <r>    6.2463    1.0001 </r>
       <r>    7.9562   -0.0000 </r>
       <r>    8.3167   -0.0000 </r>
       <r>    8.5659   -0.0000 </r>
       <r>    8.8857   -0.0000 </r>
       <r>   10.4762    0.0000 </r>
       <r>   10.6806    0.0000 </r>
       <r>   10.8755    0.0000 </r>
       <r>   10.9105    0.0000 </r>
       <r>   11.5212    0.0000 </r>
       <r>   11.6972    0.0000 </r>
       <r>   11.8645    0.0000 </r>
       <r>   12.1225    0.0000 </r>
      </set>
      <set comment="kpoint 25">
       <r>   -6.5842    1.0000 </r>
       <r>   -6.4850    1.0000 </r>
       <r>   -6.3631    1.0000 </r>
       <r>   -6.3267    1.0000 </r>
       <r>    0.2489    1.0000 </r>
       <r>    0.3046    1.0000 </r>
       <r>    0.5053    1.0000 </r>
       <r>    0.5641    1.0000 </r>
       <r>    0.7467    1.0000 </r>
       <r>    0.8609    1.0000 </r>
       <r>    0.9050    1.0000 </r>
       <r>    1.0006    1.0000 </r>
       <r>    1.0421    1.0000 </r>
       <r>    1.0939    1.0000 </r>
       <r>    1.2173    1.0000 </r>
       <r>    1.2649    1.0000 </r>
       <r>    1.3989    1.0000 </r>
       <r>    1.4757    1.0000 </r>
       <r>    1.5435    1.0000 </r>
       <r>    1.6060    1.0000 </r>
       <r>    1.6645    1.0000 </r>
       <r>    1.7204    1.0000 </r>
       <r>    1.8055    1.0000 </r>
       <r>    1.8670    1.0000 </r>
       <r>    1.8949    1.0000 </r>
       <r>    1.9329    1.0000 </r>
       <r>    2.0509    1.0000 </r>
       <r>    2.1449    1.0000 </r>
       <r>    2.2353    1.0000 </r>
       <r>    2.2752    1.0000 </r>
       <r>    2.3232    1.0000 </r>
       <r>    2.3332    1.0000 </r>
       <r>    2.4304    1.0000 </r>
       <r>    2.4506    1.0000 </r>
       <r>    2.4834    1.0000 </r>
       <r>    2.4888    1.0000 </r>
       <r>    2.6096    1.0000 </r>
       <r>    2.6251    1.0000 </r>
       <r>    2.6509    1.0000 </r>
       <r>    2.6884    1.0000 </r>
       <r>    2.7452    1.0000 </r>
       <r>    2.7682    1.0000 </r>
       <r>    2.8637    1.0000 </r>
       <r>    2.9517    1.0000 </r>
       <r>    3.1584    1.0000 </r>
       <r>    3.2396    1.0000 </r>
       <r>    3.7971    1.0000 </r>
       <r>    3.9430    1.0000 </r>
       <r>    4.3168    1.0000 </r>
       <r>    4.4809    1.0000 </r>
       <r>    4.9516    1.0000 </r>
       <r>    5.1226    1.0000 </r>
       <r>    5.4818    1.0000 </r>
       <r>    5.6367    1.0000 </r>
       <r>    6.0792    1.0000 </r>
       <r>    6.1828    1.0000 </r>
       <r>    8.1860   -0.0000 </r>
       <r>    8.6721   -0.0000 </r>
       <r>    9.0129   -0.0000 </r>
       <r>    9.3030    0.0000 </r>
       <r>    9.9733    0.0000 </r>
       <r>   10.1755    0.0000 </r>
       <r>   10.5914    0.0000 </r>
       <r>   10.6752    0.0000 </r>
       <r>   11.4737    0.0000 </r>
       <r>   11.6432    0.0000 </r>
       <r>   11.7418    0.0000 </r>
       <r>   12.0338    0.0000 </r>
      </set>
      <set comment="kpoint 26">
       <r>   -6.5069    1.0000 </r>
       <r>   -6.4308    1.0000 </r>
       <r>   -6.3504    1.0000 </r>
       <r>   -6.3160    1.0000 </r>
       <r>    0.2130    1.0000 </r>
       <r>    0.2359    1.0000 </r>
       <r>    0.6056    1.0000 </r>
       <r>    0.6759    1.0000 </r>
       <r>    0.8109    1.0000 </r>
       <r>    0.8458    1.0000 </r>
       <r>    0.9587    1.0000 </r>
       <r>    0.9715    1.0000 </r>
       <r>    1.0560    1.0000 </r>
       <r>    1.0793    1.0000 </r>
       <r>    1.2739    1.0000 </r>
       <r>    1.3487    1.0000 </r>
       <r>    1.4452    1.0000 </r>
       <r>    1.5072    1.0000 </r>
       <r>    1.5327    1.0000 </r>
       <r>    1.5822    1.0000 </r>
       <r>    1.6853    1.0000 </r>
       <r>    1.7026    1.0000 </r>
       <r>    1.7931    1.0000 </r>
       <r>    1.8567    1.0000 </r>
       <r>    1.8795    1.0000 </r>
       <r>    1.9230    1.0000 </r>
       <r>    2.0451    1.0000 </r>
       <r>    2.1103    1.0000 </r>
       <r>    2.2361    1.0000 </r>
       <r>    2.2537    1.0000 </r>
       <r>    2.2923    1.0000 </r>
       <r>    2.3258    1.0000 </r>
       <r>    2.4226    1.0000 </r>
       <r>    2.4410    1.0000 </r>
       <r>    2.4716    1.0000 </r>
       <r>    2.4940    1.0000 </r>
       <r>    2.5644    1.0000 </r>
       <r>    2.5913    1.0000 </r>
       <r>    2.6505    1.0000 </r>
       <r>    2.6688    1.0000 </r>
       <r>    2.7220    1.0000 </r>
       <r>    2.7783    1.0000 </r>
       <r>    2.8522    1.0000 </r>
       <r>    2.9631    1.0000 </r>
       <r>    3.2380    1.0000 </r>
       <r>    3.2763    1.0000 </r>
       <r>    3.7000    1.0000 </r>
       <r>    3.7931    1.0000 </r>
       <r>    4.0593    1.0000 </r>
       <r>    4.1734    1.0000 </r>
       <r>    4.9258    1.0000 </r>
       <r>    5.1137    1.0000 </r>
       <r>    5.4815    1.0000 </r>
       <r>    5.6575    1.0000 </r>
       <r>    5.9950    1.0000 </r>
       <r>    6.0917    1.0000 </r>
       <r>    8.1127   -0.0000 </r>
       <r>    8.6253   -0.0000 </r>
       <r>    9.1955   -0.0000 </r>
       <r>    9.3371    0.0000 </r>
       <r>    9.7228    0.0000 </r>
       <r>    9.9500    0.0000 </r>
       <r>   10.7714    0.0000 </r>
       <r>   10.8389    0.0000 </r>
       <r>   11.2695    0.0000 </r>
       <r>   11.5548    0.0000 </r>
       <r>   11.7058    0.0000 </r>
       <r>   11.9737    0.0000 </r>
      </set>
      <set comment="kpoint 27">
       <r>   -6.4376    1.0000 </r>
       <r>   -6.3897    1.0000 </r>
       <r>   -6.3387    1.0000 </r>
       <r>   -6.3056    1.0000 </r>
       <r>    0.1797    1.0000 </r>
       <r>    0.1898    1.0000 </r>
       <r>    0.6478    1.0000 </r>
       <r>    0.7166    1.0000 </r>
       <r>    0.7971    1.0000 </r>
       <r>    0.8617    1.0000 </r>
       <r>    0.9554    1.0000 </r>
       <r>    1.0243    1.0000 </r>
       <r>    1.0841    1.0000 </r>
       <r>    1.1036    1.0000 </r>
       <r>    1.3002    1.0000 </r>
       <r>    1.3711    1.0000 </r>
       <r>    1.5095    1.0000 </r>
       <r>    1.5426    1.0000 </r>
       <r>    1.5554    1.0000 </r>
       <r>    1.6155    1.0000 </r>
       <r>    1.6978    1.0000 </r>
       <r>    1.7300    1.0000 </r>
       <r>    1.7841    1.0000 </r>
       <r>    1.8498    1.0000 </r>
       <r>    1.8902    1.0000 </r>
       <r>    1.9601    1.0000 </r>
       <r>    2.0495    1.0000 </r>
       <r>    2.0820    1.0000 </r>
       <r>    2.2233    1.0000 </r>
       <r>    2.2300    1.0000 </r>
       <r>    2.2540    1.0000 </r>
       <r>    2.3035    1.0000 </r>
       <r>    2.3902    1.0000 </r>
       <r>    2.4123    1.0000 </r>
       <r>    2.4445    1.0000 </r>
       <r>    2.4783    1.0000 </r>
       <r>    2.5380    1.0000 </r>
       <r>    2.5740    1.0000 </r>
       <r>    2.6518    1.0000 </r>
       <r>    2.6660    1.0000 </r>
       <r>    2.7197    1.0000 </r>
       <r>    2.7605    1.0000 </r>
       <r>    2.8638    1.0000 </r>
       <r>    2.9758    1.0000 </r>
       <r>    3.1065    1.0000 </r>
       <r>    3.1883    1.0000 </r>
       <r>    3.5863    1.0000 </r>
       <r>    3.7891    1.0000 </r>
       <r>    4.0440    1.0000 </r>
       <r>    4.1690    1.0000 </r>
       <r>    4.9467    1.0000 </r>
       <r>    5.1455    1.0000 </r>
       <r>    5.3578    1.0000 </r>
       <r>    5.5780    1.0000 </r>
       <r>    5.9197    1.0000 </r>
       <r>    6.0302    1.0000 </r>
       <r>    7.9119   -0.0000 </r>
       <r>    8.3615   -0.0000 </r>
       <r>    8.8974   -0.0000 </r>
       <r>    9.0168   -0.0000 </r>
       <r>    9.9352    0.0000 </r>
       <r>   10.2949    0.0000 </r>
       <r>   10.9666    0.0000 </r>
       <r>   11.0707    0.0000 </r>
       <r>   11.2265    0.0000 </r>
       <r>   11.5796    0.0000 </r>
       <r>   11.8154    0.0000 </r>
       <r>   12.0106    0.0000 </r>
      </set>
      <set comment="kpoint 28">
       <r>   -6.3921    1.0000 </r>
       <r>   -6.3738    1.0000 </r>
       <r>   -6.3310    1.0000 </r>
       <r>   -6.2983    1.0000 </r>
       <r>    0.1537    1.0000 </r>
       <r>    0.1751    1.0000 </r>
       <r>    0.6378    1.0000 </r>
       <r>    0.7188    1.0000 </r>
       <r>    0.7962    1.0000 </r>
       <r>    0.8316    1.0000 </r>
       <r>    0.9779    1.0000 </r>
       <r>    1.0378    1.0000 </r>
       <r>    1.1073    1.0000 </r>
       <r>    1.1384    1.0000 </r>
       <r>    1.3361    1.0000 </r>
       <r>    1.3810    1.0000 </r>
       <r>    1.5460    1.0000 </r>
       <r>    1.5596    1.0000 </r>
       <r>    1.6125    1.0000 </r>
       <r>    1.6392    1.0000 </r>
       <r>    1.7023    1.0000 </r>
       <r>    1.7382    1.0000 </r>
       <r>    1.7971    1.0000 </r>
       <r>    1.8442    1.0000 </r>
       <r>    1.9375    1.0000 </r>
       <r>    1.9564    1.0000 </r>
       <r>    2.0544    1.0000 </r>
       <r>    2.0989    1.0000 </r>
       <r>    2.1989    1.0000 </r>
       <r>    2.2120    1.0000 </r>
       <r>    2.2667    1.0000 </r>
       <r>    2.2976    1.0000 </r>
       <r>    2.3521    1.0000 </r>
       <r>    2.3714    1.0000 </r>
       <r>    2.4251    1.0000 </r>
       <r>    2.4412    1.0000 </r>
       <r>    2.5525    1.0000 </r>
       <r>    2.5808    1.0000 </r>
       <r>    2.6399    1.0000 </r>
       <r>    2.6592    1.0000 </r>
       <r>    2.7232    1.0000 </r>
       <r>    2.7297    1.0000 </r>
       <r>    2.8788    1.0000 </r>
       <r>    2.9558    1.0000 </r>
       <r>    3.0043    1.0000 </r>
       <r>    3.0471    1.0000 </r>
       <r>    3.4924    1.0000 </r>
       <r>    3.6963    1.0000 </r>
       <r>    4.3201    1.0000 </r>
       <r>    4.4836    1.0000 </r>
       <r>    4.7589    1.0000 </r>
       <r>    5.0342    1.0000 </r>
       <r>    5.2744    1.0000 </r>
       <r>    5.5009    1.0000 </r>
       <r>    5.8955    1.0000 </r>
       <r>    6.0043    1.0000 </r>
       <r>    7.7807   -0.0000 </r>
       <r>    8.1503   -0.0000 </r>
       <r>    8.7366   -0.0000 </r>
       <r>    8.8409   -0.0000 </r>
       <r>    9.9564    0.0000 </r>
       <r>   10.6187    0.0000 </r>
       <r>   11.0396    0.0000 </r>
       <r>   11.2137    0.0000 </r>
       <r>   11.2619    0.0000 </r>
       <r>   11.7187    0.0000 </r>
       <r>   12.0144    0.0000 </r>
       <r>   12.1012    0.0000 </r>
      </set>
      <set comment="kpoint 29">
       <r>   -6.9087    1.0000 </r>
       <r>   -6.5029    1.0000 </r>
       <r>   -6.3412    1.0000 </r>
       <r>   -6.2721    1.0000 </r>
       <r>    0.1307    1.0000 </r>
       <r>    0.4107    1.0000 </r>
       <r>    0.4154    1.0000 </r>
       <r>    0.5017    1.0000 </r>
       <r>    0.6021    1.0000 </r>
       <r>    0.7962    1.0000 </r>
       <r>    0.9521    1.0000 </r>
       <r>    1.0045    1.0000 </r>
       <r>    1.1027    1.0000 </r>
       <r>    1.1260    1.0000 </r>
       <r>    1.2661    1.0000 </r>
       <r>    1.3821    1.0000 </r>
       <r>    1.4191    1.0000 </r>
       <r>    1.4382    1.0000 </r>
       <r>    1.5239    1.0000 </r>
       <r>    1.5905    1.0000 </r>
       <r>    1.6135    1.0000 </r>
       <r>    1.7640    1.0000 </r>
       <r>    1.8703    1.0000 </r>
       <r>    1.9051    1.0000 </r>
       <r>    1.9265    1.0000 </r>
       <r>    2.0020    1.0000 </r>
       <r>    2.0426    1.0000 </r>
       <r>    2.1054    1.0000 </r>
       <r>    2.1436    1.0000 </r>
       <r>    2.2260    1.0000 </r>
       <r>    2.2600    1.0000 </r>
       <r>    2.3494    1.0000 </r>
       <r>    2.3593    1.0000 </r>
       <r>    2.4721    1.0000 </r>
       <r>    2.5116    1.0000 </r>
       <r>    2.5524    1.0000 </r>
       <r>    2.6036    1.0000 </r>
       <r>    2.6458    1.0000 </r>
       <r>    2.6891    1.0000 </r>
       <r>    2.7748    1.0000 </r>
       <r>    2.8445    1.0000 </r>
       <r>    2.8732    1.0000 </r>
       <r>    3.0148    1.0000 </r>
       <r>    3.0840    1.0000 </r>
       <r>    3.1544    1.0000 </r>
       <r>    3.2069    1.0000 </r>
       <r>    3.5053    1.0000 </r>
       <r>    3.7216    1.0000 </r>
       <r>    4.3374    1.0000 </r>
       <r>    4.7785    1.0000 </r>
       <r>    5.1228    1.0000 </r>
       <r>    5.2398    1.0000 </r>
       <r>    5.7329    1.0000 </r>
       <r>    6.1107    1.0000 </r>
       <r>    6.2194    1.0000 </r>
       <r>    6.5380    0.5835 </r>
       <r>    6.8518   -0.0001 </r>
       <r>    8.0257   -0.0000 </r>
       <r>    8.7762   -0.0000 </r>
       <r>    9.4841    0.0000 </r>
       <r>    9.9213    0.0000 </r>
       <r>   10.9184    0.0000 </r>
       <r>   11.1754    0.0000 </r>
       <r>   11.6004    0.0000 </r>
       <r>   11.8252    0.0000 </r>
       <r>   11.9813    0.0000 </r>
       <r>   12.9063    0.0000 </r>
       <r>   13.0610    0.0000 </r>
      </set>
      <set comment="kpoint 30">
       <r>   -6.8729    1.0000 </r>
       <r>   -6.5194    1.0000 </r>
       <r>   -6.3277    1.0000 </r>
       <r>   -6.2735    1.0000 </r>
       <r>    0.1510    1.0000 </r>
       <r>    0.3650    1.0000 </r>
       <r>    0.4172    1.0000 </r>
       <r>    0.5241    1.0000 </r>
       <r>    0.7113    1.0000 </r>
       <r>    0.7759    1.0000 </r>
       <r>    0.9437    1.0000 </r>
       <r>    1.0325    1.0000 </r>
       <r>    1.1238    1.0000 </r>
       <r>    1.1663    1.0000 </r>
       <r>    1.3076    1.0000 </r>
       <r>    1.3431    1.0000 </r>
       <r>    1.4118    1.0000 </r>
       <r>    1.4387    1.0000 </r>
       <r>    1.5250    1.0000 </r>
       <r>    1.5585    1.0000 </r>
       <r>    1.6039    1.0000 </r>
       <r>    1.6962    1.0000 </r>
       <r>    1.8235    1.0000 </r>
       <r>    1.8570    1.0000 </r>
       <r>    1.9562    1.0000 </r>
       <r>    2.0071    1.0000 </r>
       <r>    2.0469    1.0000 </r>
       <r>    2.1156    1.0000 </r>
       <r>    2.1418    1.0000 </r>
       <r>    2.2334    1.0000 </r>
       <r>    2.3119    1.0000 </r>
       <r>    2.3320    1.0000 </r>
       <r>    2.3496    1.0000 </r>
       <r>    2.4456    1.0000 </r>
       <r>    2.5011    1.0000 </r>
       <r>    2.5607    1.0000 </r>
       <r>    2.6001    1.0000 </r>
       <r>    2.6505    1.0000 </r>
       <r>    2.7174    1.0000 </r>
       <r>    2.7673    1.0000 </r>
       <r>    2.8420    1.0000 </r>
       <r>    2.8842    1.0000 </r>
       <r>    3.0196    1.0000 </r>
       <r>    3.0667    1.0000 </r>
       <r>    3.1166    1.0000 </r>
       <r>    3.3039    1.0000 </r>
       <r>    3.4761    1.0000 </r>
       <r>    3.7096    1.0000 </r>
       <r>    4.2336    1.0000 </r>
       <r>    4.7977    1.0000 </r>
       <r>    5.0777    1.0000 </r>
       <r>    5.1398    1.0000 </r>
       <r>    5.5877    1.0000 </r>
       <r>    6.0674    1.0000 </r>
       <r>    6.1429    1.0000 </r>
       <r>    6.4242    1.0354 </r>
       <r>    7.0977   -0.0000 </r>
       <r>    8.4881   -0.0000 </r>
       <r>    8.8269   -0.0000 </r>
       <r>    9.6535    0.0000 </r>
       <r>    9.9520    0.0000 </r>
       <r>   10.7834    0.0000 </r>
       <r>   10.9784    0.0000 </r>
       <r>   11.1476    0.0000 </r>
       <r>   11.5872    0.0000 </r>
       <r>   11.7606    0.0000 </r>
       <r>   12.4169    0.0000 </r>
       <r>   12.8667    0.0000 </r>
      </set>
      <set comment="kpoint 31">
       <r>   -6.8000    1.0000 </r>
       <r>   -6.5200    1.0000 </r>
       <r>   -6.3069    1.0000 </r>
       <r>   -6.2731    1.0000 </r>
       <r>    0.2041    1.0000 </r>
       <r>    0.3528    1.0000 </r>
       <r>    0.4270    1.0000 </r>
       <r>    0.5944    1.0000 </r>
       <r>    0.6990    1.0000 </r>
       <r>    0.8067    1.0000 </r>
       <r>    0.9304    1.0000 </r>
       <r>    1.0733    1.0000 </r>
       <r>    1.1720    1.0000 </r>
       <r>    1.2197    1.0000 </r>
       <r>    1.2713    1.0000 </r>
       <r>    1.3747    1.0000 </r>
       <r>    1.4060    1.0000 </r>
       <r>    1.4427    1.0000 </r>
       <r>    1.4964    1.0000 </r>
       <r>    1.5581    1.0000 </r>
       <r>    1.5720    1.0000 </r>
       <r>    1.6576    1.0000 </r>
       <r>    1.7807    1.0000 </r>
       <r>    1.8569    1.0000 </r>
       <r>    1.9278    1.0000 </r>
       <r>    1.9746    1.0000 </r>
       <r>    2.0750    1.0000 </r>
       <r>    2.1124    1.0000 </r>
       <r>    2.1379    1.0000 </r>
       <r>    2.2786    1.0000 </r>
       <r>    2.2988    1.0000 </r>
       <r>    2.3512    1.0000 </r>
       <r>    2.3756    1.0000 </r>
       <r>    2.4160    1.0000 </r>
       <r>    2.5072    1.0000 </r>
       <r>    2.5569    1.0000 </r>
       <r>    2.5756    1.0000 </r>
       <r>    2.6720    1.0000 </r>
       <r>    2.7109    1.0000 </r>
       <r>    2.7330    1.0000 </r>
       <r>    2.8506    1.0000 </r>
       <r>    2.8804    1.0000 </r>
       <r>    2.9797    1.0000 </r>
       <r>    3.0335    1.0000 </r>
       <r>    3.0971    1.0000 </r>
       <r>    3.4529    1.0000 </r>
       <r>    3.5384    1.0000 </r>
       <r>    3.7048    1.0000 </r>
       <r>    4.1062    1.0000 </r>
       <r>    4.7327    1.0000 </r>
       <r>    4.7349    1.0000 </r>
       <r>    5.0086    1.0000 </r>
       <r>    5.5280    1.0000 </r>
       <r>    5.7631    1.0000 </r>
       <r>    6.0556    1.0000 </r>
       <r>    6.2581    1.0002 </r>
       <r>    7.5418   -0.0000 </r>
       <r>    8.8404   -0.0000 </r>
       <r>    9.2130   -0.0000 </r>
       <r>    9.8447    0.0000 </r>
       <r>   10.0541    0.0000 </r>
       <r>   10.4670    0.0000 </r>
       <r>   10.7727    0.0000 </r>
       <r>   10.8400    0.0000 </r>
       <r>   11.2559    0.0000 </r>
       <r>   11.5413    0.0000 </r>
       <r>   11.9378    0.0000 </r>
       <r>   12.7174    0.0000 </r>
      </set>
      <set comment="kpoint 32">
       <r>   -6.7008    1.0000 </r>
       <r>   -6.5041    1.0000 </r>
       <r>   -6.2902    1.0000 </r>
       <r>   -6.2679    1.0000 </r>
       <r>    0.2618    1.0000 </r>
       <r>    0.3878    1.0000 </r>
       <r>    0.4177    1.0000 </r>
       <r>    0.6160    1.0000 </r>
       <r>    0.7133    1.0000 </r>
       <r>    0.7900    1.0000 </r>
       <r>    0.9255    1.0000 </r>
       <r>    1.0926    1.0000 </r>
       <r>    1.1947    1.0000 </r>
       <r>    1.2625    1.0000 </r>
       <r>    1.2849    1.0000 </r>
       <r>    1.3254    1.0000 </r>
       <r>    1.4112    1.0000 </r>
       <r>    1.4398    1.0000 </r>
       <r>    1.5537    1.0000 </r>
       <r>    1.5607    1.0000 </r>
       <r>    1.5931    1.0000 </r>
       <r>    1.6948    1.0000 </r>
       <r>    1.7861    1.0000 </r>
       <r>    1.8395    1.0000 </r>
       <r>    1.9119    1.0000 </r>
       <r>    1.9778    1.0000 </r>
       <r>    2.0690    1.0000 </r>
       <r>    2.1389    1.0000 </r>
       <r>    2.1586    1.0000 </r>
       <r>    2.2320    1.0000 </r>
       <r>    2.2716    1.0000 </r>
       <r>    2.3152    1.0000 </r>
       <r>    2.3975    1.0000 </r>
       <r>    2.4530    1.0000 </r>
       <r>    2.4979    1.0000 </r>
       <r>    2.5430    1.0000 </r>
       <r>    2.5875    1.0000 </r>
       <r>    2.6311    1.0000 </r>
       <r>    2.6830    1.0000 </r>
       <r>    2.6879    1.0000 </r>
       <r>    2.8248    1.0000 </r>
       <r>    2.8762    1.0000 </r>
       <r>    2.9863    1.0000 </r>
       <r>    3.0079    1.0000 </r>
       <r>    3.1330    1.0000 </r>
       <r>    3.4102    1.0000 </r>
       <r>    3.6681    1.0000 </r>
       <r>    3.7701    1.0000 </r>
       <r>    3.9751    1.0000 </r>
       <r>    4.3740    1.0000 </r>
       <r>    4.6171    1.0000 </r>
       <r>    4.9692    1.0000 </r>
       <r>    5.4037    1.0000 </r>
       <r>    5.6057    1.0000 </r>
       <r>    5.8276    1.0000 </r>
       <r>    6.1756    1.0000 </r>
       <r>    8.0464   -0.0000 </r>
       <r>    8.5266   -0.0000 </r>
       <r>    9.3968    0.0000 </r>
       <r>    9.4758    0.0000 </r>
       <r>    9.9629    0.0000 </r>
       <r>   10.4535    0.0000 </r>
       <r>   10.8220    0.0000 </r>
       <r>   11.0079    0.0000 </r>
       <r>   11.1885    0.0000 </r>
       <r>   11.6862    0.0000 </r>
       <r>   11.8066    0.0000 </r>
       <r>   12.5342    0.0000 </r>
      </set>
      <set comment="kpoint 33">
       <r>   -6.5909    1.0000 </r>
       <r>   -6.4748    1.0000 </r>
       <r>   -6.2915    1.0000 </r>
       <r>   -6.2557    1.0000 </r>
       <r>    0.2896    1.0000 </r>
       <r>    0.3532    1.0000 </r>
       <r>    0.4583    1.0000 </r>
       <r>    0.6429    1.0000 </r>
       <r>    0.6733    1.0000 </r>
       <r>    0.8185    1.0000 </r>
       <r>    0.9480    1.0000 </r>
       <r>    1.0992    1.0000 </r>
       <r>    1.1657    1.0000 </r>
       <r>    1.2031    1.0000 </r>
       <r>    1.2683    1.0000 </r>
       <r>    1.3941    1.0000 </r>
       <r>    1.4222    1.0000 </r>
       <r>    1.4601    1.0000 </r>
       <r>    1.5978    1.0000 </r>
       <r>    1.6294    1.0000 </r>
       <r>    1.6773    1.0000 </r>
       <r>    1.7195    1.0000 </r>
       <r>    1.8281    1.0000 </r>
       <r>    1.8610    1.0000 </r>
       <r>    1.9146    1.0000 </r>
       <r>    2.0204    1.0000 </r>
       <r>    2.0797    1.0000 </r>
       <r>    2.1279    1.0000 </r>
       <r>    2.1635    1.0000 </r>
       <r>    2.1872    1.0000 </r>
       <r>    2.2489    1.0000 </r>
       <r>    2.2930    1.0000 </r>
       <r>    2.3838    1.0000 </r>
       <r>    2.4468    1.0000 </r>
       <r>    2.4882    1.0000 </r>
       <r>    2.5179    1.0000 </r>
       <r>    2.5669    1.0000 </r>
       <r>    2.5937    1.0000 </r>
       <r>    2.6465    1.0000 </r>
       <r>    2.6649    1.0000 </r>
       <r>    2.7643    1.0000 </r>
       <r>    2.8464    1.0000 </r>
       <r>    2.9207    1.0000 </r>
       <r>    3.0262    1.0000 </r>
       <r>    3.2004    1.0000 </r>
       <r>    3.3871    1.0000 </r>
       <r>    3.5661    1.0000 </r>
       <r>    3.8309    1.0000 </r>
       <r>    4.0282    1.0000 </r>
       <r>    4.2206    1.0000 </r>
       <r>    4.4657    1.0000 </r>
       <r>    5.0112    1.0000 </r>
       <r>    5.1558    1.0000 </r>
       <r>    5.5099    1.0000 </r>
       <r>    5.7480    1.0000 </r>
       <r>    6.1258    1.0000 </r>
       <r>    8.0265   -0.0000 </r>
       <r>    8.5297   -0.0000 </r>
       <r>    8.7007   -0.0000 </r>
       <r>    9.0937   -0.0000 </r>
       <r>   10.0990    0.0000 </r>
       <r>   10.3612    0.0000 </r>
       <r>   10.8079    0.0000 </r>
       <r>   11.2156    0.0000 </r>
       <r>   11.4709    0.0000 </r>
       <r>   11.7151    0.0000 </r>
       <r>   12.2831    0.0000 </r>
       <r>   12.7562    0.0000 </r>
      </set>
      <set comment="kpoint 34">
       <r>   -6.4881    1.0000 </r>
       <r>   -6.4383    1.0000 </r>
       <r>   -6.3115    1.0000 </r>
       <r>   -6.2473    1.0000 </r>
       <r>    0.2966    1.0000 </r>
       <r>    0.3027    1.0000 </r>
       <r>    0.4770    1.0000 </r>
       <r>    0.5684    1.0000 </r>
       <r>    0.7612    1.0000 </r>
       <r>    0.8491    1.0000 </r>
       <r>    0.9349    1.0000 </r>
       <r>    1.0837    1.0000 </r>
       <r>    1.1624    1.0000 </r>
       <r>    1.2482    1.0000 </r>
       <r>    1.2686    1.0000 </r>
       <r>    1.3664    1.0000 </r>
       <r>    1.4547    1.0000 </r>
       <r>    1.5188    1.0000 </r>
       <r>    1.6441    1.0000 </r>
       <r>    1.6506    1.0000 </r>
       <r>    1.7198    1.0000 </r>
       <r>    1.7737    1.0000 </r>
       <r>    1.8873    1.0000 </r>
       <r>    1.9202    1.0000 </r>
       <r>    1.9488    1.0000 </r>
       <r>    2.0193    1.0000 </r>
       <r>    2.0901    1.0000 </r>
       <r>    2.1120    1.0000 </r>
       <r>    2.1561    1.0000 </r>
       <r>    2.2087    1.0000 </r>
       <r>    2.2366    1.0000 </r>
       <r>    2.2877    1.0000 </r>
       <r>    2.3559    1.0000 </r>
       <r>    2.4081    1.0000 </r>
       <r>    2.4407    1.0000 </r>
       <r>    2.4861    1.0000 </r>
       <r>    2.5178    1.0000 </r>
       <r>    2.5814    1.0000 </r>
       <r>    2.5853    1.0000 </r>
       <r>    2.6641    1.0000 </r>
       <r>    2.7088    1.0000 </r>
       <r>    2.7749    1.0000 </r>
       <r>    2.8784    1.0000 </r>
       <r>    3.0017    1.0000 </r>
       <r>    3.1675    1.0000 </r>
       <r>    3.4166    1.0000 </r>
       <r>    3.6117    1.0000 </r>
       <r>    3.7691    1.0000 </r>
       <r>    4.0863    1.0000 </r>
       <r>    4.2116    1.0000 </r>
       <r>    4.3410    1.0000 </r>
       <r>    5.0162    1.0000 </r>
       <r>    5.1265    1.0000 </r>
       <r>    5.2776    1.0000 </r>
       <r>    5.8280    1.0000 </r>
       <r>    6.0782    1.0000 </r>
       <r>    7.6835   -0.0000 </r>
       <r>    8.1993   -0.0000 </r>
       <r>    8.7495   -0.0000 </r>
       <r>    8.9028   -0.0000 </r>
       <r>    9.9050    0.0000 </r>
       <r>   10.2603    0.0000 </r>
       <r>   10.8986    0.0000 </r>
       <r>   11.3615    0.0000 </r>
       <r>   11.4244    0.0000 </r>
       <r>   11.9388    0.0000 </r>
       <r>   12.1774    0.0000 </r>
       <r>   13.2368    0.0000 </r>
      </set>
      <set comment="kpoint 35">
       <r>   -6.4123    1.0000 </r>
       <r>   -6.4047    1.0000 </r>
       <r>   -6.3509    1.0000 </r>
       <r>   -6.2441    1.0000 </r>
       <r>    0.2764    1.0000 </r>
       <r>    0.3316    1.0000 </r>
       <r>    0.4358    1.0000 </r>
       <r>    0.5268    1.0000 </r>
       <r>    0.8286    1.0000 </r>
       <r>    0.8771    1.0000 </r>
       <r>    0.9198    1.0000 </r>
       <r>    1.0591    1.0000 </r>
       <r>    1.1853    1.0000 </r>
       <r>    1.2618    1.0000 </r>
       <r>    1.2816    1.0000 </r>
       <r>    1.3649    1.0000 </r>
       <r>    1.4621    1.0000 </r>
       <r>    1.5893    1.0000 </r>
       <r>    1.6559    1.0000 </r>
       <r>    1.6799    1.0000 </r>
       <r>    1.7258    1.0000 </r>
       <r>    1.8303    1.0000 </r>
       <r>    1.9340    1.0000 </r>
       <r>    1.9625    1.0000 </r>
       <r>    1.9653    1.0000 </r>
       <r>    2.0084    1.0000 </r>
       <r>    2.0635    1.0000 </r>
       <r>    2.1158    1.0000 </r>
       <r>    2.1566    1.0000 </r>
       <r>    2.2382    1.0000 </r>
       <r>    2.2513    1.0000 </r>
       <r>    2.2886    1.0000 </r>
       <r>    2.3228    1.0000 </r>
       <r>    2.3689    1.0000 </r>
       <r>    2.4026    1.0000 </r>
       <r>    2.4651    1.0000 </r>
       <r>    2.5182    1.0000 </r>
       <r>    2.5521    1.0000 </r>
       <r>    2.5650    1.0000 </r>
       <r>    2.6539    1.0000 </r>
       <r>    2.6825    1.0000 </r>
       <r>    2.7210    1.0000 </r>
       <r>    2.8415    1.0000 </r>
       <r>    2.9586    1.0000 </r>
       <r>    3.1109    1.0000 </r>
       <r>    3.2865    1.0000 </r>
       <r>    3.7406    1.0000 </r>
       <r>    3.8869    1.0000 </r>
       <r>    3.9977    1.0000 </r>
       <r>    4.1835    1.0000 </r>
       <r>    4.2374    1.0000 </r>
       <r>    5.0206    1.0000 </r>
       <r>    5.0914    1.0000 </r>
       <r>    5.3357    1.0000 </r>
       <r>    5.8494    1.0000 </r>
       <r>    5.9830    1.0000 </r>
       <r>    7.5950   -0.0000 </r>
       <r>    8.1033   -0.0000 </r>
       <r>    8.5330   -0.0000 </r>
       <r>    9.1367   -0.0000 </r>
       <r>    9.8605    0.0000 </r>
       <r>    9.9712    0.0000 </r>
       <r>   10.9231    0.0000 </r>
       <r>   11.2826    0.0000 </r>
       <r>   11.3959    0.0000 </r>
       <r>   11.7315    0.0000 </r>
       <r>   12.2680    0.0000 </r>
       <r>   13.4101    0.0000 </r>
      </set>
      <set comment="kpoint 36">
       <r>   -6.4505    1.0000 </r>
       <r>   -6.3741    1.0000 </r>
       <r>   -6.3430    1.0000 </r>
       <r>   -6.2445    1.0000 </r>
       <r>    0.2921    1.0000 </r>
       <r>    0.3764    1.0000 </r>
       <r>    0.4105    1.0000 </r>
       <r>    0.5215    1.0000 </r>
       <r>    0.8159    1.0000 </r>
       <r>    0.9130    1.0000 </r>
       <r>    0.9571    1.0000 </r>
       <r>    0.9834    1.0000 </r>
       <r>    1.1386    1.0000 </r>
       <r>    1.2521    1.0000 </r>
       <r>    1.2801    1.0000 </r>
       <r>    1.4046    1.0000 </r>
       <r>    1.4561    1.0000 </r>
       <r>    1.5925    1.0000 </r>
       <r>    1.6305    1.0000 </r>
       <r>    1.7206    1.0000 </r>
       <r>    1.8003    1.0000 </r>
       <r>    1.8582    1.0000 </r>
       <r>    1.9157    1.0000 </r>
       <r>    1.9493    1.0000 </r>
       <r>    1.9886    1.0000 </r>
       <r>    2.0170    1.0000 </r>
       <r>    2.0571    1.0000 </r>
       <r>    2.0806    1.0000 </r>
       <r>    2.1882    1.0000 </r>
       <r>    2.2097    1.0000 </r>
       <r>    2.2359    1.0000 </r>
       <r>    2.3176    1.0000 </r>
       <r>    2.3310    1.0000 </r>
       <r>    2.3754    1.0000 </r>
       <r>    2.4187    1.0000 </r>
       <r>    2.4961    1.0000 </r>
       <r>    2.5197    1.0000 </r>
       <r>    2.5497    1.0000 </r>
       <r>    2.5959    1.0000 </r>
       <r>    2.6345    1.0000 </r>
       <r>    2.6573    1.0000 </r>
       <r>    2.7259    1.0000 </r>
       <r>    2.7764    1.0000 </r>
       <r>    2.9168    1.0000 </r>
       <r>    3.0845    1.0000 </r>
       <r>    3.2226    1.0000 </r>
       <r>    3.6338    1.0000 </r>
       <r>    3.7944    1.0000 </r>
       <r>    4.0133    1.0000 </r>
       <r>    4.1655    1.0000 </r>
       <r>    4.4059    1.0000 </r>
       <r>    4.9264    1.0000 </r>
       <r>    5.1627    1.0000 </r>
       <r>    5.4866    1.0000 </r>
       <r>    5.8077    1.0000 </r>
       <r>    5.8570    1.0000 </r>
       <r>    7.8545   -0.0000 </r>
       <r>    8.3746   -0.0000 </r>
       <r>    8.4977   -0.0000 </r>
       <r>    9.1096   -0.0000 </r>
       <r>    9.7957    0.0000 </r>
       <r>    9.9266    0.0000 </r>
       <r>   10.7648    0.0000 </r>
       <r>   11.2223    0.0000 </r>
       <r>   11.3454    0.0000 </r>
       <r>   11.3826    0.0000 </r>
       <r>   12.3488    0.0000 </r>
       <r>   13.6645    0.0000 </r>
      </set>
      <set comment="kpoint 37">
       <r>   -6.5511    1.0000 </r>
       <r>   -6.3660    1.0000 </r>
       <r>   -6.3180    1.0000 </r>
       <r>   -6.2495    1.0000 </r>
       <r>    0.3303    1.0000 </r>
       <r>    0.3548    1.0000 </r>
       <r>    0.4612    1.0000 </r>
       <r>    0.5625    1.0000 </r>
       <r>    0.7798    1.0000 </r>
       <r>    0.8879    1.0000 </r>
       <r>    0.9450    1.0000 </r>
       <r>    0.9983    1.0000 </r>
       <r>    1.0726    1.0000 </r>
       <r>    1.2346    1.0000 </r>
       <r>    1.2621    1.0000 </r>
       <r>    1.4180    1.0000 </r>
       <r>    1.4556    1.0000 </r>
       <r>    1.5505    1.0000 </r>
       <r>    1.6168    1.0000 </r>
       <r>    1.7133    1.0000 </r>
       <r>    1.7935    1.0000 </r>
       <r>    1.8262    1.0000 </r>
       <r>    1.8541    1.0000 </r>
       <r>    1.9394    1.0000 </r>
       <r>    1.9661    1.0000 </r>
       <r>    2.0438    1.0000 </r>
       <r>    2.0581    1.0000 </r>
       <r>    2.0755    1.0000 </r>
       <r>    2.2061    1.0000 </r>
       <r>    2.2487    1.0000 </r>
       <r>    2.2807    1.0000 </r>
       <r>    2.2973    1.0000 </r>
       <r>    2.3576    1.0000 </r>
       <r>    2.3964    1.0000 </r>
       <r>    2.4252    1.0000 </r>
       <r>    2.5079    1.0000 </r>
       <r>    2.5440    1.0000 </r>
       <r>    2.5574    1.0000 </r>
       <r>    2.5696    1.0000 </r>
       <r>    2.6235    1.0000 </r>
       <r>    2.7232    1.0000 </r>
       <r>    2.7644    1.0000 </r>
       <r>    2.8154    1.0000 </r>
       <r>    2.9134    1.0000 </r>
       <r>    3.0393    1.0000 </r>
       <r>    3.3172    1.0000 </r>
       <r>    3.4359    1.0000 </r>
       <r>    3.8238    1.0000 </r>
       <r>    3.9145    1.0000 </r>
       <r>    4.2364    1.0000 </r>
       <r>    4.5132    1.0000 </r>
       <r>    4.8612    1.0000 </r>
       <r>    5.2650    1.0000 </r>
       <r>    5.5085    1.0000 </r>
       <r>    5.8125    1.0000 </r>
       <r>    5.8676    1.0000 </r>
       <r>    8.3846   -0.0000 </r>
       <r>    8.5191   -0.0000 </r>
       <r>    8.7182   -0.0000 </r>
       <r>    9.0334   -0.0000 </r>
       <r>    9.8354    0.0000 </r>
       <r>   10.0871    0.0000 </r>
       <r>   10.4462    0.0000 </r>
       <r>   11.0132    0.0000 </r>
       <r>   11.3907    0.0000 </r>
       <r>   11.5071    0.0000 </r>
       <r>   12.2309    0.0000 </r>
       <r>   13.4002    0.0000 </r>
      </set>
      <set comment="kpoint 38">
       <r>   -6.6642    1.0000 </r>
       <r>   -6.3783    1.0000 </r>
       <r>   -6.3092    1.0000 </r>
       <r>   -6.2580    1.0000 </r>
       <r>    0.2859    1.0000 </r>
       <r>    0.4313    1.0000 </r>
       <r>    0.4512    1.0000 </r>
       <r>    0.6417    1.0000 </r>
       <r>    0.6957    1.0000 </r>
       <r>    0.8555    1.0000 </r>
       <r>    0.9002    1.0000 </r>
       <r>    1.0423    1.0000 </r>
       <r>    1.0842    1.0000 </r>
       <r>    1.2016    1.0000 </r>
       <r>    1.2712    1.0000 </r>
       <r>    1.3854    1.0000 </r>
       <r>    1.4419    1.0000 </r>
       <r>    1.5206    1.0000 </r>
       <r>    1.5966    1.0000 </r>
       <r>    1.6668    1.0000 </r>
       <r>    1.7310    1.0000 </r>
       <r>    1.7639    1.0000 </r>
       <r>    1.7772    1.0000 </r>
       <r>    1.8963    1.0000 </r>
       <r>    1.9526    1.0000 </r>
       <r>    1.9884    1.0000 </r>
       <r>    2.0488    1.0000 </r>
       <r>    2.1092    1.0000 </r>
       <r>    2.1989    1.0000 </r>
       <r>    2.2491    1.0000 </r>
       <r>    2.2788    1.0000 </r>
       <r>    2.3506    1.0000 </r>
       <r>    2.4013    1.0000 </r>
       <r>    2.4201    1.0000 </r>
       <r>    2.4598    1.0000 </r>
       <r>    2.5373    1.0000 </r>
       <r>    2.5485    1.0000 </r>
       <r>    2.5932    1.0000 </r>
       <r>    2.6067    1.0000 </r>
       <r>    2.6439    1.0000 </r>
       <r>    2.7812    1.0000 </r>
       <r>    2.8033    1.0000 </r>
       <r>    2.8620    1.0000 </r>
       <r>    2.9457    1.0000 </r>
       <r>    3.0731    1.0000 </r>
       <r>    3.3190    1.0000 </r>
       <r>    3.6135    1.0000 </r>
       <r>    3.7352    1.0000 </r>
       <r>    4.0511    1.0000 </r>
       <r>    4.2522    1.0000 </r>
       <r>    4.4145    1.0000 </r>
       <r>    4.9805    1.0000 </r>
       <r>    5.0360    1.0000 </r>
       <r>    5.6700    1.0000 </r>
       <r>    5.8964    1.0000 </r>
       <r>    6.0326    1.0000 </r>
       <r>    8.0887   -0.0000 </r>
       <r>    8.7900   -0.0000 </r>
       <r>    9.2198   -0.0000 </r>
       <r>    9.5733    0.0000 </r>
       <r>    9.6395    0.0000 </r>
       <r>   10.3525    0.0000 </r>
       <r>   10.4848    0.0000 </r>
       <r>   10.9265    0.0000 </r>
       <r>   11.5370    0.0000 </r>
       <r>   11.7712    0.0000 </r>
       <r>   11.9463    0.0000 </r>
       <r>   12.6115    0.0000 </r>
      </set>
      <set comment="kpoint 39">
       <r>   -6.7706    1.0000 </r>
       <r>   -6.4050    1.0000 </r>
       <r>   -6.3174    1.0000 </r>
       <r>   -6.2639    1.0000 </r>
       <r>    0.2373    1.0000 </r>
       <r>    0.4140    1.0000 </r>
       <r>    0.4913    1.0000 </r>
       <r>    0.5884    1.0000 </r>
       <r>    0.7109    1.0000 </r>
       <r>    0.8434    1.0000 </r>
       <r>    0.8736    1.0000 </r>
       <r>    1.0340    1.0000 </r>
       <r>    1.0677    1.0000 </r>
       <r>    1.1877    1.0000 </r>
       <r>    1.3153    1.0000 </r>
       <r>    1.3556    1.0000 </r>
       <r>    1.4308    1.0000 </r>
       <r>    1.4675    1.0000 </r>
       <r>    1.5668    1.0000 </r>
       <r>    1.6128    1.0000 </r>
       <r>    1.7058    1.0000 </r>
       <r>    1.7131    1.0000 </r>
       <r>    1.7818    1.0000 </r>
       <r>    1.8124    1.0000 </r>
       <r>    1.8833    1.0000 </r>
       <r>    2.0015    1.0000 </r>
       <r>    2.0533    1.0000 </r>
       <r>    2.1112    1.0000 </r>
       <r>    2.2010    1.0000 </r>
       <r>    2.2377    1.0000 </r>
       <r>    2.3034    1.0000 </r>
       <r>    2.3856    1.0000 </r>
       <r>    2.4231    1.0000 </r>
       <r>    2.4328    1.0000 </r>
       <r>    2.5205    1.0000 </r>
       <r>    2.5250    1.0000 </r>
       <r>    2.5815    1.0000 </r>
       <r>    2.6356    1.0000 </r>
       <r>    2.6579    1.0000 </r>
       <r>    2.6935    1.0000 </r>
       <r>    2.7253    1.0000 </r>
       <r>    2.8609    1.0000 </r>
       <r>    2.8961    1.0000 </r>
       <r>    2.9247    1.0000 </r>
       <r>    3.1918    1.0000 </r>
       <r>    3.3459    1.0000 </r>
       <r>    3.7456    1.0000 </r>
       <r>    3.9112    1.0000 </r>
       <r>    4.1418    1.0000 </r>
       <r>    4.2267    1.0000 </r>
       <r>    4.4010    1.0000 </r>
       <r>    4.9129    1.0000 </r>
       <r>    5.2823    1.0000 </r>
       <r>    5.5776    1.0000 </r>
       <r>    6.1358    1.0000 </r>
       <r>    6.1882    1.0000 </r>
       <r>    7.5596   -0.0000 </r>
       <r>    9.0430   -0.0000 </r>
       <r>    9.1816   -0.0000 </r>
       <r>    9.8906    0.0000 </r>
       <r>   10.1351    0.0000 </r>
       <r>   10.6059    0.0000 </r>
       <r>   10.7479    0.0000 </r>
       <r>   11.0849    0.0000 </r>
       <r>   11.2653    0.0000 </r>
       <r>   11.8822    0.0000 </r>
       <r>   12.0812    0.0000 </r>
       <r>   12.3248    0.0000 </r>
      </set>
      <set comment="kpoint 40">
       <r>   -6.8539    1.0000 </r>
       <r>   -6.4392    1.0000 </r>
       <r>   -6.3328    1.0000 </r>
       <r>   -6.2668    1.0000 </r>
       <r>    0.1896    1.0000 </r>
       <r>    0.4069    1.0000 </r>
       <r>    0.4616    1.0000 </r>
       <r>    0.5270    1.0000 </r>
       <r>    0.7116    1.0000 </r>
       <r>    0.8246    1.0000 </r>
       <r>    0.9215    1.0000 </r>
       <r>    0.9744    1.0000 </r>
       <r>    1.0250    1.0000 </r>
       <r>    1.1411    1.0000 </r>
       <r>    1.3438    1.0000 </r>
       <r>    1.3665    1.0000 </r>
       <r>    1.4332    1.0000 </r>
       <r>    1.4663    1.0000 </r>
       <r>    1.5236    1.0000 </r>
       <r>    1.5861    1.0000 </r>
       <r>    1.6924    1.0000 </r>
       <r>    1.6996    1.0000 </r>
       <r>    1.7755    1.0000 </r>
       <r>    1.8297    1.0000 </r>
       <r>    1.9043    1.0000 </r>
       <r>    2.0117    1.0000 </r>
       <r>    2.0572    1.0000 </r>
       <r>    2.1027    1.0000 </r>
       <r>    2.1642    1.0000 </r>
       <r>    2.2798    1.0000 </r>
       <r>    2.3067    1.0000 </r>
       <r>    2.3517    1.0000 </r>
       <r>    2.3997    1.0000 </r>
       <r>    2.4872    1.0000 </r>
       <r>    2.5190    1.0000 </r>
       <r>    2.5640    1.0000 </r>
       <r>    2.5974    1.0000 </r>
       <r>    2.6414    1.0000 </r>
       <r>    2.6862    1.0000 </r>
       <r>    2.7098    1.0000 </r>
       <r>    2.7587    1.0000 </r>
       <r>    2.8566    1.0000 </r>
       <r>    2.8838    1.0000 </r>
       <r>    2.9838    1.0000 </r>
       <r>    3.2219    1.0000 </r>
       <r>    3.3162    1.0000 </r>
       <r>    3.8227    1.0000 </r>
       <r>    3.8794    1.0000 </r>
       <r>    4.1466    1.0000 </r>
       <r>    4.4728    1.0000 </r>
       <r>    4.5673    1.0000 </r>
       <r>    5.1534    1.0000 </r>
       <r>    5.4319    1.0000 </r>
       <r>    5.6731    1.0000 </r>
       <r>    6.2224    1.0000 </r>
       <r>    6.3539    1.0097 </r>
       <r>    7.1033   -0.0000 </r>
       <r>    8.5468   -0.0000 </r>
       <r>    9.5436    0.0000 </r>
       <r>    9.6372    0.0000 </r>
       <r>   10.3505    0.0000 </r>
       <r>   10.6927    0.0000 </r>
       <r>   10.9090    0.0000 </r>
       <r>   11.3102    0.0000 </r>
       <r>   11.5435    0.0000 </r>
       <r>   12.0531    0.0000 </r>
       <r>   12.3232    0.0000 </r>
       <r>   12.5312    0.0000 </r>
      </set>
      <set comment="kpoint 41">
       <r>   -6.9021    1.0000 </r>
       <r>   -6.4742    1.0000 </r>
       <r>   -6.3427    1.0000 </r>
       <r>   -6.2696    1.0000 </r>
       <r>    0.1476    1.0000 </r>
       <r>    0.4199    1.0000 </r>
       <r>    0.4626    1.0000 </r>
       <r>    0.4681    1.0000 </r>
       <r>    0.6142    1.0000 </r>
       <r>    0.8154    1.0000 </r>
       <r>    0.9582    1.0000 </r>
       <r>    0.9891    1.0000 </r>
       <r>    1.0312    1.0000 </r>
       <r>    1.1126    1.0000 </r>
       <r>    1.2940    1.0000 </r>
       <r>    1.3817    1.0000 </r>
       <r>    1.4247    1.0000 </r>
       <r>    1.4578    1.0000 </r>
       <r>    1.5237    1.0000 </r>
       <r>    1.5955    1.0000 </r>
       <r>    1.6553    1.0000 </r>
       <r>    1.7603    1.0000 </r>
       <r>    1.7965    1.0000 </r>
       <r>    1.8932    1.0000 </r>
       <r>    1.9523    1.0000 </r>
       <r>    1.9920    1.0000 </r>
       <r>    2.0183    1.0000 </r>
       <r>    2.1384    1.0000 </r>
       <r>    2.1393    1.0000 </r>
       <r>    2.2532    1.0000 </r>
       <r>    2.2876    1.0000 </r>
       <r>    2.3315    1.0000 </r>
       <r>    2.3813    1.0000 </r>
       <r>    2.4884    1.0000 </r>
       <r>    2.5319    1.0000 </r>
       <r>    2.5562    1.0000 </r>
       <r>    2.6025    1.0000 </r>
       <r>    2.6441    1.0000 </r>
       <r>    2.6783    1.0000 </r>
       <r>    2.7524    1.0000 </r>
       <r>    2.8107    1.0000 </r>
       <r>    2.8639    1.0000 </r>
       <r>    2.9179    1.0000 </r>
       <r>    3.0538    1.0000 </r>
       <r>    3.1889    1.0000 </r>
       <r>    3.2501    1.0000 </r>
       <r>    3.6355    1.0000 </r>
       <r>    3.7883    1.0000 </r>
       <r>    4.4161    1.0000 </r>
       <r>    4.5150    1.0000 </r>
       <r>    4.9490    1.0000 </r>
       <r>    5.2956    1.0000 </r>
       <r>    5.5736    1.0000 </r>
       <r>    5.9972    1.0000 </r>
       <r>    6.2361    1.0000 </r>
       <r>    6.4738    0.9732 </r>
       <r>    6.8376   -0.0002 </r>
       <r>    8.1087   -0.0000 </r>
       <r>    9.0590   -0.0000 </r>
       <r>    9.8037    0.0000 </r>
       <r>    9.8360    0.0000 </r>
       <r>   10.8439    0.0000 </r>
       <r>   11.1750    0.0000 </r>
       <r>   11.6930    0.0000 </r>
       <r>   11.8855    0.0000 </r>
       <r>   12.0053    0.0000 </r>
       <r>   12.5713    0.0000 </r>
       <r>   12.8577    0.0000 </r>
      </set>
      <set comment="kpoint 42">
       <r>   -6.8824    1.0000 </r>
       <r>   -6.4910    1.0000 </r>
       <r>   -6.3706    1.0000 </r>
       <r>   -6.2833    1.0000 </r>
       <r>    0.1386    1.0000 </r>
       <r>    0.3524    1.0000 </r>
       <r>    0.4347    1.0000 </r>
       <r>    0.5461    1.0000 </r>
       <r>    0.5744    1.0000 </r>
       <r>    0.7994    1.0000 </r>
       <r>    0.9285    1.0000 </r>
       <r>    0.9704    1.0000 </r>
       <r>    1.0760    1.0000 </r>
       <r>    1.1686    1.0000 </r>
       <r>    1.2395    1.0000 </r>
       <r>    1.3475    1.0000 </r>
       <r>    1.3875    1.0000 </r>
       <r>    1.4353    1.0000 </r>
       <r>    1.5229    1.0000 </r>
       <r>    1.5922    1.0000 </r>
       <r>    1.6824    1.0000 </r>
       <r>    1.7799    1.0000 </r>
       <r>    1.8325    1.0000 </r>
       <r>    1.8914    1.0000 </r>
       <r>    1.9249    1.0000 </r>
       <r>    2.0026    1.0000 </r>
       <r>    2.0860    1.0000 </r>
       <r>    2.1251    1.0000 </r>
       <r>    2.1646    1.0000 </r>
       <r>    2.2153    1.0000 </r>
       <r>    2.2522    1.0000 </r>
       <r>    2.3303    1.0000 </r>
       <r>    2.3759    1.0000 </r>
       <r>    2.4684    1.0000 </r>
       <r>    2.5208    1.0000 </r>
       <r>    2.5501    1.0000 </r>
       <r>    2.6244    1.0000 </r>
       <r>    2.6655    1.0000 </r>
       <r>    2.6841    1.0000 </r>
       <r>    2.7557    1.0000 </r>
       <r>    2.8463    1.0000 </r>
       <r>    2.8749    1.0000 </r>
       <r>    2.9762    1.0000 </r>
       <r>    3.0796    1.0000 </r>
       <r>    3.1139    1.0000 </r>
       <r>    3.2158    1.0000 </r>
       <r>    3.3556    1.0000 </r>
       <r>    3.9900    1.0000 </r>
       <r>    4.4729    1.0000 </r>
       <r>    4.8259    1.0000 </r>
       <r>    5.1040    1.0000 </r>
       <r>    5.2656    1.0000 </r>
       <r>    5.7228    1.0000 </r>
       <r>    6.1194    1.0000 </r>
       <r>    6.1882    1.0000 </r>
       <r>    6.5072    0.8144 </r>
       <r>    6.9860   -0.0000 </r>
       <r>    8.0431   -0.0000 </r>
       <r>    8.4222   -0.0000 </r>
       <r>    9.2154   -0.0000 </r>
       <r>   10.3236    0.0000 </r>
       <r>   11.0191    0.0000 </r>
       <r>   11.1463    0.0000 </r>
       <r>   11.5460    0.0000 </r>
       <r>   11.8284    0.0000 </r>
       <r>   12.0531    0.0000 </r>
       <r>   12.5793    0.0000 </r>
       <r>   12.8113    0.0000 </r>
      </set>
      <set comment="kpoint 43">
       <r>   -6.8475    1.0000 </r>
       <r>   -6.5068    1.0000 </r>
       <r>   -6.3558    1.0000 </r>
       <r>   -6.2855    1.0000 </r>
       <r>    0.1579    1.0000 </r>
       <r>    0.3415    1.0000 </r>
       <r>    0.4352    1.0000 </r>
       <r>    0.5424    1.0000 </r>
       <r>    0.6848    1.0000 </r>
       <r>    0.7629    1.0000 </r>
       <r>    0.9115    1.0000 </r>
       <r>    1.0127    1.0000 </r>
       <r>    1.1011    1.0000 </r>
       <r>    1.1734    1.0000 </r>
       <r>    1.2726    1.0000 </r>
       <r>    1.3377    1.0000 </r>
       <r>    1.3543    1.0000 </r>
       <r>    1.4548    1.0000 </r>
       <r>    1.4935    1.0000 </r>
       <r>    1.5909    1.0000 </r>
       <r>    1.6640    1.0000 </r>
       <r>    1.7498    1.0000 </r>
       <r>    1.7839    1.0000 </r>
       <r>    1.8772    1.0000 </r>
       <r>    1.9486    1.0000 </r>
       <r>    2.0196    1.0000 </r>
       <r>    2.0571    1.0000 </r>
       <r>    2.1297    1.0000 </r>
       <r>    2.1537    1.0000 </r>
       <r>    2.2161    1.0000 </r>
       <r>    2.2822    1.0000 </r>
       <r>    2.3345    1.0000 </r>
       <r>    2.3694    1.0000 </r>
       <r>    2.4630    1.0000 </r>
       <r>    2.5078    1.0000 </r>
       <r>    2.5236    1.0000 </r>
       <r>    2.6240    1.0000 </r>
       <r>    2.6799    1.0000 </r>
       <r>    2.7127    1.0000 </r>
       <r>    2.7491    1.0000 </r>
       <r>    2.8511    1.0000 </r>
       <r>    2.8680    1.0000 </r>
       <r>    2.9690    1.0000 </r>
       <r>    3.0577    1.0000 </r>
       <r>    3.1457    1.0000 </r>
       <r>    3.2360    1.0000 </r>
       <r>    3.4100    1.0000 </r>
       <r>    3.9593    1.0000 </r>
       <r>    4.3138    1.0000 </r>
       <r>    4.8056    1.0000 </r>
       <r>    5.1164    1.0000 </r>
       <r>    5.1874    1.0000 </r>
       <r>    5.5790    1.0000 </r>
       <r>    6.0220    1.0000 </r>
       <r>    6.1362    1.0000 </r>
       <r>    6.4409    1.0309 </r>
       <r>    7.1890   -0.0000 </r>
       <r>    8.4641   -0.0000 </r>
       <r>    8.5239   -0.0000 </r>
       <r>    9.3677    0.0000 </r>
       <r>   10.3928    0.0000 </r>
       <r>   10.8287    0.0000 </r>
       <r>   10.9825    0.0000 </r>
       <r>   11.1806    0.0000 </r>
       <r>   11.5136    0.0000 </r>
       <r>   11.8352    0.0000 </r>
       <r>   12.1280    0.0000 </r>
       <r>   12.8918    0.0000 </r>
      </set>
      <set comment="kpoint 44">
       <r>   -6.7767    1.0000 </r>
       <r>   -6.5074    1.0000 </r>
       <r>   -6.3323    1.0000 </r>
       <r>   -6.2848    1.0000 </r>
       <r>    0.2066    1.0000 </r>
       <r>    0.3442    1.0000 </r>
       <r>    0.4619    1.0000 </r>
       <r>    0.5629    1.0000 </r>
       <r>    0.7085    1.0000 </r>
       <r>    0.8062    1.0000 </r>
       <r>    0.8936    1.0000 </r>
       <r>    1.0616    1.0000 </r>
       <r>    1.1209    1.0000 </r>
       <r>    1.1943    1.0000 </r>
       <r>    1.2756    1.0000 </r>
       <r>    1.3226    1.0000 </r>
       <r>    1.3671    1.0000 </r>
       <r>    1.4647    1.0000 </r>
       <r>    1.4860    1.0000 </r>
       <r>    1.5760    1.0000 </r>
       <r>    1.6265    1.0000 </r>
       <r>    1.7171    1.0000 </r>
       <r>    1.7332    1.0000 </r>
       <r>    1.8674    1.0000 </r>
       <r>    1.9553    1.0000 </r>
       <r>    1.9797    1.0000 </r>
       <r>    2.0708    1.0000 </r>
       <r>    2.1208    1.0000 </r>
       <r>    2.1540    1.0000 </r>
       <r>    2.2379    1.0000 </r>
       <r>    2.3065    1.0000 </r>
       <r>    2.3518    1.0000 </r>
       <r>    2.3775    1.0000 </r>
       <r>    2.4316    1.0000 </r>
       <r>    2.4980    1.0000 </r>
       <r>    2.5469    1.0000 </r>
       <r>    2.5938    1.0000 </r>
       <r>    2.6653    1.0000 </r>
       <r>    2.7107    1.0000 </r>
       <r>    2.7528    1.0000 </r>
       <r>    2.8357    1.0000 </r>
       <r>    2.8564    1.0000 </r>
       <r>    2.9393    1.0000 </r>
       <r>    3.0191    1.0000 </r>
       <r>    3.1813    1.0000 </r>
       <r>    3.3286    1.0000 </r>
       <r>    3.5636    1.0000 </r>
       <r>    3.9306    1.0000 </r>
       <r>    4.1205    1.0000 </r>
       <r>    4.6933    1.0000 </r>
       <r>    4.8129    1.0000 </r>
       <r>    5.0459    1.0000 </r>
       <r>    5.5417    1.0000 </r>
       <r>    5.7431    1.0000 </r>
       <r>    6.0271    1.0000 </r>
       <r>    6.3056    1.0016 </r>
       <r>    7.5849   -0.0000 </r>
       <r>    8.6325   -0.0000 </r>
       <r>    9.1761   -0.0000 </r>
       <r>    9.6327    0.0000 </r>
       <r>   10.2534    0.0000 </r>
       <r>   10.6118    0.0000 </r>
       <r>   10.6729    0.0000 </r>
       <r>   10.9782    0.0000 </r>
       <r>   11.2297    0.0000 </r>
       <r>   11.6061    0.0000 </r>
       <r>   11.7332    0.0000 </r>
       <r>   12.8279    0.0000 </r>
      </set>
      <set comment="kpoint 45">
       <r>   -6.6809    1.0000 </r>
       <r>   -6.4922    1.0000 </r>
       <r>   -6.3107    1.0000 </r>
       <r>   -6.2793    1.0000 </r>
       <r>    0.2613    1.0000 </r>
       <r>    0.3733    1.0000 </r>
       <r>    0.4410    1.0000 </r>
       <r>    0.5911    1.0000 </r>
       <r>    0.7349    1.0000 </r>
       <r>    0.8034    1.0000 </r>
       <r>    0.9209    1.0000 </r>
       <r>    1.0582    1.0000 </r>
       <r>    1.1747    1.0000 </r>
       <r>    1.2230    1.0000 </r>
       <r>    1.2636    1.0000 </r>
       <r>    1.2866    1.0000 </r>
       <r>    1.3880    1.0000 </r>
       <r>    1.4766    1.0000 </r>
       <r>    1.5408    1.0000 </r>
       <r>    1.5823    1.0000 </r>
       <r>    1.6153    1.0000 </r>
       <r>    1.7133    1.0000 </r>
       <r>    1.7278    1.0000 </r>
       <r>    1.8461    1.0000 </r>
       <r>    1.9075    1.0000 </r>
       <r>    2.0065    1.0000 </r>
       <r>    2.0711    1.0000 </r>
       <r>    2.1359    1.0000 </r>
       <r>    2.1605    1.0000 </r>
       <r>    2.2349    1.0000 </r>
       <r>    2.2802    1.0000 </r>
       <r>    2.3405    1.0000 </r>
       <r>    2.3874    1.0000 </r>
       <r>    2.4472    1.0000 </r>
       <r>    2.5045    1.0000 </r>
       <r>    2.5341    1.0000 </r>
       <r>    2.5765    1.0000 </r>
       <r>    2.6213    1.0000 </r>
       <r>    2.6774    1.0000 </r>
       <r>    2.7234    1.0000 </r>
       <r>    2.7913    1.0000 </r>
       <r>    2.8470    1.0000 </r>
       <r>    2.9345    1.0000 </r>
       <r>    3.0154    1.0000 </r>
       <r>    3.2380    1.0000 </r>
       <r>    3.4427    1.0000 </r>
       <r>    3.6693    1.0000 </r>
       <r>    3.7812    1.0000 </r>
       <r>    4.1129    1.0000 </r>
       <r>    4.3982    1.0000 </r>
       <r>    4.5912    1.0000 </r>
       <r>    4.9112    1.0000 </r>
       <r>    5.4455    1.0000 </r>
       <r>    5.6174    1.0000 </r>
       <r>    5.8802    1.0000 </r>
       <r>    6.1766    1.0000 </r>
       <r>    8.0122   -0.0000 </r>
       <r>    8.4947   -0.0000 </r>
       <r>    9.2476   -0.0000 </r>
       <r>    9.7068    0.0000 </r>
       <r>    9.9163    0.0000 </r>
       <r>   10.4437    0.0000 </r>
       <r>   10.6371    0.0000 </r>
       <r>   11.0574    0.0000 </r>
       <r>   11.3478    0.0000 </r>
       <r>   11.5830    0.0000 </r>
       <r>   11.7499    0.0000 </r>
       <r>   12.6701    0.0000 </r>
      </set>
      <set comment="kpoint 46">
       <r>   -6.5755    1.0000 </r>
       <r>   -6.4640    1.0000 </r>
       <r>   -6.3051    1.0000 </r>
       <r>   -6.2669    1.0000 </r>
       <r>    0.2900    1.0000 </r>
       <r>    0.3512    1.0000 </r>
       <r>    0.4345    1.0000 </r>
       <r>    0.6425    1.0000 </r>
       <r>    0.7233    1.0000 </r>
       <r>    0.8060    1.0000 </r>
       <r>    0.9539    1.0000 </r>
       <r>    1.0756    1.0000 </r>
       <r>    1.1702    1.0000 </r>
       <r>    1.1942    1.0000 </r>
       <r>    1.2362    1.0000 </r>
       <r>    1.3414    1.0000 </r>
       <r>    1.4201    1.0000 </r>
       <r>    1.5020    1.0000 </r>
       <r>    1.5849    1.0000 </r>
       <r>    1.6283    1.0000 </r>
       <r>    1.6794    1.0000 </r>
       <r>    1.7095    1.0000 </r>
       <r>    1.7831    1.0000 </r>
       <r>    1.8621    1.0000 </r>
       <r>    1.9018    1.0000 </r>
       <r>    2.0419    1.0000 </r>
       <r>    2.0718    1.0000 </r>
       <r>    2.1066    1.0000 </r>
       <r>    2.1512    1.0000 </r>
       <r>    2.2299    1.0000 </r>
       <r>    2.2577    1.0000 </r>
       <r>    2.2952    1.0000 </r>
       <r>    2.3702    1.0000 </r>
       <r>    2.4564    1.0000 </r>
       <r>    2.4781    1.0000 </r>
       <r>    2.5217    1.0000 </r>
       <r>    2.5611    1.0000 </r>
       <r>    2.5812    1.0000 </r>
       <r>    2.6494    1.0000 </r>
       <r>    2.6853    1.0000 </r>
       <r>    2.7498    1.0000 </r>
       <r>    2.8310    1.0000 </r>
       <r>    2.8937    1.0000 </r>
       <r>    3.0210    1.0000 </r>
       <r>    3.2242    1.0000 </r>
       <r>    3.4915    1.0000 </r>
       <r>    3.5896    1.0000 </r>
       <r>    3.8254    1.0000 </r>
       <r>    4.1363    1.0000 </r>
       <r>    4.2354    1.0000 </r>
       <r>    4.4695    1.0000 </r>
       <r>    4.8365    1.0000 </r>
       <r>    5.2970    1.0000 </r>
       <r>    5.5616    1.0000 </r>
       <r>    5.7836    1.0000 </r>
       <r>    6.0542    1.0000 </r>
       <r>    8.1316   -0.0000 </r>
       <r>    8.3854   -0.0000 </r>
       <r>    8.6419   -0.0000 </r>
       <r>    9.3600    0.0000 </r>
       <r>   10.0669    0.0000 </r>
       <r>   10.3422    0.0000 </r>
       <r>   10.7848    0.0000 </r>
       <r>   11.0784    0.0000 </r>
       <r>   11.4905    0.0000 </r>
       <r>   11.6359    0.0000 </r>
       <r>   12.3202    0.0000 </r>
       <r>   12.8040    0.0000 </r>
      </set>
      <set comment="kpoint 47">
       <r>   -6.4783    1.0000 </r>
       <r>   -6.4288    1.0000 </r>
       <r>   -6.3190    1.0000 </r>
       <r>   -6.2565    1.0000 </r>
       <r>    0.2752    1.0000 </r>
       <r>    0.3222    1.0000 </r>
       <r>    0.4302    1.0000 </r>
       <r>    0.6252    1.0000 </r>
       <r>    0.7593    1.0000 </r>
       <r>    0.8452    1.0000 </r>
       <r>    0.9505    1.0000 </r>
       <r>    1.0551    1.0000 </r>
       <r>    1.1780    1.0000 </r>
       <r>    1.2380    1.0000 </r>
       <r>    1.2668    1.0000 </r>
       <r>    1.3378    1.0000 </r>
       <r>    1.4461    1.0000 </r>
       <r>    1.5525    1.0000 </r>
       <r>    1.6145    1.0000 </r>
       <r>    1.6604    1.0000 </r>
       <r>    1.6932    1.0000 </r>
       <r>    1.7811    1.0000 </r>
       <r>    1.8697    1.0000 </r>
       <r>    1.8897    1.0000 </r>
       <r>    1.9543    1.0000 </r>
       <r>    2.0268    1.0000 </r>
       <r>    2.0578    1.0000 </r>
       <r>    2.1009    1.0000 </r>
       <r>    2.1495    1.0000 </r>
       <r>    2.2193    1.0000 </r>
       <r>    2.2453    1.0000 </r>
       <r>    2.2779    1.0000 </r>
       <r>    2.3382    1.0000 </r>
       <r>    2.4094    1.0000 </r>
       <r>    2.4569    1.0000 </r>
       <r>    2.4945    1.0000 </r>
       <r>    2.5122    1.0000 </r>
       <r>    2.5405    1.0000 </r>
       <r>    2.6156    1.0000 </r>
       <r>    2.6830    1.0000 </r>
       <r>    2.7193    1.0000 </r>
       <r>    2.7842    1.0000 </r>
       <r>    2.8613    1.0000 </r>
       <r>    2.9907    1.0000 </r>
       <r>    3.1869    1.0000 </r>
       <r>    3.4270    1.0000 </r>
       <r>    3.5043    1.0000 </r>
       <r>    3.9262    1.0000 </r>
       <r>    4.1379    1.0000 </r>
       <r>    4.2348    1.0000 </r>
       <r>    4.3800    1.0000 </r>
       <r>    4.9123    1.0000 </r>
       <r>    5.2251    1.0000 </r>
       <r>    5.3895    1.0000 </r>
       <r>    5.7928    1.0000 </r>
       <r>    5.9327    1.0000 </r>
       <r>    7.9219   -0.0000 </r>
       <r>    8.1828   -0.0000 </r>
       <r>    8.6008   -0.0000 </r>
       <r>    9.0346   -0.0000 </r>
       <r>    9.8886    0.0000 </r>
       <r>   10.2679    0.0000 </r>
       <r>   11.0250    0.0000 </r>
       <r>   11.3005    0.0000 </r>
       <r>   11.4327    0.0000 </r>
       <r>   11.7838    0.0000 </r>
       <r>   12.2020    0.0000 </r>
       <r>   12.9151    0.0000 </r>
      </set>
      <set comment="kpoint 48">
       <r>   -6.4080    1.0000 </r>
       <r>   -6.3967    1.0000 </r>
       <r>   -6.3525    1.0000 </r>
       <r>   -6.2517    1.0000 </r>
       <r>    0.2548    1.0000 </r>
       <r>    0.3334    1.0000 </r>
       <r>    0.4025    1.0000 </r>
       <r>    0.5857    1.0000 </r>
       <r>    0.8251    1.0000 </r>
       <r>    0.8660    1.0000 </r>
       <r>    0.9544    1.0000 </r>
       <r>    1.0178    1.0000 </r>
       <r>    1.1968    1.0000 </r>
       <r>    1.2514    1.0000 </r>
       <r>    1.2954    1.0000 </r>
       <r>    1.3661    1.0000 </r>
       <r>    1.4659    1.0000 </r>
       <r>    1.5932    1.0000 </r>
       <r>    1.6378    1.0000 </r>
       <r>    1.6756    1.0000 </r>
       <r>    1.7160    1.0000 </r>
       <r>    1.8342    1.0000 </r>
       <r>    1.8809    1.0000 </r>
       <r>    1.9318    1.0000 </r>
       <r>    1.9751    1.0000 </r>
       <r>    2.0212    1.0000 </r>
       <r>    2.0590    1.0000 </r>
       <r>    2.1184    1.0000 </r>
       <r>    2.1628    1.0000 </r>
       <r>    2.2139    1.0000 </r>
       <r>    2.2454    1.0000 </r>
       <r>    2.2754    1.0000 </r>
       <r>    2.3096    1.0000 </r>
       <r>    2.3681    1.0000 </r>
       <r>    2.4091    1.0000 </r>
       <r>    2.4523    1.0000 </r>
       <r>    2.5143    1.0000 </r>
       <r>    2.5374    1.0000 </r>
       <r>    2.5955    1.0000 </r>
       <r>    2.6695    1.0000 </r>
       <r>    2.7087    1.0000 </r>
       <r>    2.7267    1.0000 </r>
       <r>    2.8472    1.0000 </r>
       <r>    2.9483    1.0000 </r>
       <r>    3.1302    1.0000 </r>
       <r>    3.2737    1.0000 </r>
       <r>    3.5303    1.0000 </r>
       <r>    3.9021    1.0000 </r>
       <r>    4.1694    1.0000 </r>
       <r>    4.2703    1.0000 </r>
       <r>    4.3386    1.0000 </r>
       <r>    4.9907    1.0000 </r>
       <r>    5.0408    1.0000 </r>
       <r>    5.4761    1.0000 </r>
       <r>    5.7815    1.0000 </r>
       <r>    5.8874    1.0000 </r>
       <r>    7.8747   -0.0000 </r>
       <r>    8.0935   -0.0000 </r>
       <r>    8.7052   -0.0000 </r>
       <r>    8.8399   -0.0000 </r>
       <r>    9.6349    0.0000 </r>
       <r>   10.2873    0.0000 </r>
       <r>   11.0178    0.0000 </r>
       <r>   11.3534    0.0000 </r>
       <r>   11.4961    0.0000 </r>
       <r>   11.7612    0.0000 </r>
       <r>   12.0594    0.0000 </r>
       <r>   12.8571    0.0000 </r>
      </set>
      <set comment="kpoint 49">
       <r>   -6.4431    1.0000 </r>
       <r>   -6.3688    1.0000 </r>
       <r>   -6.3459    1.0000 </r>
       <r>   -6.2514    1.0000 </r>
       <r>    0.2613    1.0000 </r>
       <r>    0.3528    1.0000 </r>
       <r>    0.4030    1.0000 </r>
       <r>    0.5763    1.0000 </r>
       <r>    0.8252    1.0000 </r>
       <r>    0.8959    1.0000 </r>
       <r>    0.9545    1.0000 </r>
       <r>    1.0030    1.0000 </r>
       <r>    1.1431    1.0000 </r>
       <r>    1.2506    1.0000 </r>
       <r>    1.2928    1.0000 </r>
       <r>    1.4106    1.0000 </r>
       <r>    1.4704    1.0000 </r>
       <r>    1.5855    1.0000 </r>
       <r>    1.6202    1.0000 </r>
       <r>    1.7044    1.0000 </r>
       <r>    1.7677    1.0000 </r>
       <r>    1.8540    1.0000 </r>
       <r>    1.8756    1.0000 </r>
       <r>    1.9241    1.0000 </r>
       <r>    1.9825    1.0000 </r>
       <r>    2.0038    1.0000 </r>
       <r>    2.0584    1.0000 </r>
       <r>    2.1354    1.0000 </r>
       <r>    2.1792    1.0000 </r>
       <r>    2.2082    1.0000 </r>
       <r>    2.2483    1.0000 </r>
       <r>    2.2813    1.0000 </r>
       <r>    2.3270    1.0000 </r>
       <r>    2.3731    1.0000 </r>
       <r>    2.4120    1.0000 </r>
       <r>    2.4649    1.0000 </r>
       <r>    2.5102    1.0000 </r>
       <r>    2.5492    1.0000 </r>
       <r>    2.6050    1.0000 </r>
       <r>    2.6459    1.0000 </r>
       <r>    2.7004    1.0000 </r>
       <r>    2.7355    1.0000 </r>
       <r>    2.7776    1.0000 </r>
       <r>    2.9250    1.0000 </r>
       <r>    3.0699    1.0000 </r>
       <r>    3.1929    1.0000 </r>
       <r>    3.5916    1.0000 </r>
       <r>    3.7363    1.0000 </r>
       <r>    4.1162    1.0000 </r>
       <r>    4.2785    1.0000 </r>
       <r>    4.4478    1.0000 </r>
       <r>    4.8102    1.0000 </r>
       <r>    5.1489    1.0000 </r>
       <r>    5.6189    1.0000 </r>
       <r>    5.7995    1.0000 </r>
       <r>    5.8911    1.0000 </r>
       <r>    8.0349   -0.0000 </r>
       <r>    8.3829   -0.0000 </r>
       <r>    8.6721   -0.0000 </r>
       <r>    8.8041   -0.0000 </r>
       <r>    9.4946    0.0000 </r>
       <r>   10.3500    0.0000 </r>
       <r>   10.8356    0.0000 </r>
       <r>   11.2250    0.0000 </r>
       <r>   11.3119    0.0000 </r>
       <r>   11.5976    0.0000 </r>
       <r>   12.1873    0.0000 </r>
       <r>   13.0314    0.0000 </r>
      </set>
      <set comment="kpoint 50">
       <r>   -6.5382    1.0000 </r>
       <r>   -6.3605    1.0000 </r>
       <r>   -6.3271    1.0000 </r>
       <r>   -6.2563    1.0000 </r>
       <r>    0.2930    1.0000 </r>
       <r>    0.3452    1.0000 </r>
       <r>    0.4421    1.0000 </r>
       <r>    0.5941    1.0000 </r>
       <r>    0.7923    1.0000 </r>
       <r>    0.8613    1.0000 </r>
       <r>    0.9735    1.0000 </r>
       <r>    1.0287    1.0000 </r>
       <r>    1.0838    1.0000 </r>
       <r>    1.2203    1.0000 </r>
       <r>    1.2890    1.0000 </r>
       <r>    1.4155    1.0000 </r>
       <r>    1.4724    1.0000 </r>
       <r>    1.5566    1.0000 </r>
       <r>    1.5945    1.0000 </r>
       <r>    1.7000    1.0000 </r>
       <r>    1.7413    1.0000 </r>
       <r>    1.8174    1.0000 </r>
       <r>    1.8579    1.0000 </r>
       <r>    1.9245    1.0000 </r>
       <r>    1.9325    1.0000 </r>
       <r>    1.9943    1.0000 </r>
       <r>    2.0692    1.0000 </r>
       <r>    2.1123    1.0000 </r>
       <r>    2.2177    1.0000 </r>
       <r>    2.2421    1.0000 </r>
       <r>    2.2857    1.0000 </r>
       <r>    2.3029    1.0000 </r>
       <r>    2.3252    1.0000 </r>
       <r>    2.4193    1.0000 </r>
       <r>    2.4360    1.0000 </r>
       <r>    2.5027    1.0000 </r>
       <r>    2.5060    1.0000 </r>
       <r>    2.5542    1.0000 </r>
       <r>    2.5714    1.0000 </r>
       <r>    2.6413    1.0000 </r>
       <r>    2.7073    1.0000 </r>
       <r>    2.7632    1.0000 </r>
       <r>    2.8361    1.0000 </r>
       <r>    2.9415    1.0000 </r>
       <r>    3.0432    1.0000 </r>
       <r>    3.2149    1.0000 </r>
       <r>    3.5433    1.0000 </r>
       <r>    3.7212    1.0000 </r>
       <r>    4.0528    1.0000 </r>
       <r>    4.1860    1.0000 </r>
       <r>    4.5579    1.0000 </r>
       <r>    4.7413    1.0000 </r>
       <r>    5.3922    1.0000 </r>
       <r>    5.5402    1.0000 </r>
       <r>    5.8504    1.0000 </r>
       <r>    5.9792    1.0000 </r>
       <r>    8.3607   -0.0000 </r>
       <r>    8.5138   -0.0000 </r>
       <r>    8.8325   -0.0000 </r>
       <r>    9.0314   -0.0000 </r>
       <r>    9.5548    0.0000 </r>
       <r>   10.4142    0.0000 </r>
       <r>   10.4835    0.0000 </r>
       <r>   10.9277    0.0000 </r>
       <r>   11.2412    0.0000 </r>
       <r>   11.7556    0.0000 </r>
       <r>   12.0812    0.0000 </r>
       <r>   13.0979    0.0000 </r>
      </set>
      <set comment="kpoint 51">
       <r>   -6.6464    1.0000 </r>
       <r>   -6.3723    1.0000 </r>
       <r>   -6.3254    1.0000 </r>
       <r>   -6.2643    1.0000 </r>
       <r>    0.2857    1.0000 </r>
       <r>    0.3748    1.0000 </r>
       <r>    0.4592    1.0000 </r>
       <r>    0.6135    1.0000 </r>
       <r>    0.7144    1.0000 </r>
       <r>    0.8438    1.0000 </r>
       <r>    0.9514    1.0000 </r>
       <r>    1.0364    1.0000 </r>
       <r>    1.1242    1.0000 </r>
       <r>    1.2033    1.0000 </r>
       <r>    1.2672    1.0000 </r>
       <r>    1.3790    1.0000 </r>
       <r>    1.4616    1.0000 </r>
       <r>    1.5289    1.0000 </r>
       <r>    1.5655    1.0000 </r>
       <r>    1.6533    1.0000 </r>
       <r>    1.7021    1.0000 </r>
       <r>    1.7546    1.0000 </r>
       <r>    1.7988    1.0000 </r>
       <r>    1.8869    1.0000 </r>
       <r>    1.9095    1.0000 </r>
       <r>    1.9849    1.0000 </r>
       <r>    2.0697    1.0000 </r>
       <r>    2.0895    1.0000 </r>
       <r>    2.2259    1.0000 </r>
       <r>    2.2560    1.0000 </r>
       <r>    2.2859    1.0000 </r>
       <r>    2.3405    1.0000 </r>
       <r>    2.4067    1.0000 </r>
       <r>    2.4359    1.0000 </r>
       <r>    2.4622    1.0000 </r>
       <r>    2.5200    1.0000 </r>
       <r>    2.5368    1.0000 </r>
       <r>    2.5547    1.0000 </r>
       <r>    2.6195    1.0000 </r>
       <r>    2.6302    1.0000 </r>
       <r>    2.7308    1.0000 </r>
       <r>    2.8042    1.0000 </r>
       <r>    2.8638    1.0000 </r>
       <r>    2.9714    1.0000 </r>
       <r>    3.1446    1.0000 </r>
       <r>    3.3102    1.0000 </r>
       <r>    3.5279    1.0000 </r>
       <r>    3.7937    1.0000 </r>
       <r>    3.9687    1.0000 </r>
       <r>    4.1983    1.0000 </r>
       <r>    4.6542    1.0000 </r>
       <r>    4.8575    1.0000 </r>
       <r>    5.2499    1.0000 </r>
       <r>    5.6066    1.0000 </r>
       <r>    5.9065    1.0000 </r>
       <r>    6.1531    1.0000 </r>
       <r>    8.0550   -0.0000 </r>
       <r>    8.8293   -0.0000 </r>
       <r>    9.3464    0.0000 </r>
       <r>    9.4932    0.0000 </r>
       <r>    9.6224    0.0000 </r>
       <r>   10.2387    0.0000 </r>
       <r>   10.5605    0.0000 </r>
       <r>   10.8537    0.0000 </r>
       <r>   11.3101    0.0000 </r>
       <r>   11.7095    0.0000 </r>
       <r>   12.0893    0.0000 </r>
       <r>   12.6658    0.0000 </r>
      </set>
      <set comment="kpoint 52">
       <r>   -6.7489    1.0000 </r>
       <r>   -6.3977    1.0000 </r>
       <r>   -6.3402    1.0000 </r>
       <r>   -6.2701    1.0000 </r>
       <r>    0.2417    1.0000 </r>
       <r>    0.3898    1.0000 </r>
       <r>    0.4739    1.0000 </r>
       <r>    0.6091    1.0000 </r>
       <r>    0.6372    1.0000 </r>
       <r>    0.8350    1.0000 </r>
       <r>    0.9421    1.0000 </r>
       <r>    1.0394    1.0000 </r>
       <r>    1.0877    1.0000 </r>
       <r>    1.1985    1.0000 </r>
       <r>    1.2525    1.0000 </r>
       <r>    1.3694    1.0000 </r>
       <r>    1.4331    1.0000 </r>
       <r>    1.4761    1.0000 </r>
       <r>    1.5434    1.0000 </r>
       <r>    1.6206    1.0000 </r>
       <r>    1.6939    1.0000 </r>
       <r>    1.7252    1.0000 </r>
       <r>    1.7691    1.0000 </r>
       <r>    1.8396    1.0000 </r>
       <r>    1.8853    1.0000 </r>
       <r>    1.9934    1.0000 </r>
       <r>    2.0596    1.0000 </r>
       <r>    2.0948    1.0000 </r>
       <r>    2.2216    1.0000 </r>
       <r>    2.2621    1.0000 </r>
       <r>    2.3053    1.0000 </r>
       <r>    2.3921    1.0000 </r>
       <r>    2.4120    1.0000 </r>
       <r>    2.4405    1.0000 </r>
       <r>    2.4844    1.0000 </r>
       <r>    2.5338    1.0000 </r>
       <r>    2.5726    1.0000 </r>
       <r>    2.5980    1.0000 </r>
       <r>    2.6476    1.0000 </r>
       <r>    2.6752    1.0000 </r>
       <r>    2.7168    1.0000 </r>
       <r>    2.8339    1.0000 </r>
       <r>    2.8715    1.0000 </r>
       <r>    2.9661    1.0000 </r>
       <r>    3.2807    1.0000 </r>
       <r>    3.3619    1.0000 </r>
       <r>    3.5543    1.0000 </r>
       <r>    3.8202    1.0000 </r>
       <r>    4.1203    1.0000 </r>
       <r>    4.4562    1.0000 </r>
       <r>    4.6639    1.0000 </r>
       <r>    4.9239    1.0000 </r>
       <r>    5.2471    1.0000 </r>
       <r>    5.5663    1.0000 </r>
       <r>    6.0676    1.0000 </r>
       <r>    6.2656    1.0002 </r>
       <r>    7.6478   -0.0000 </r>
       <r>    8.9933   -0.0000 </r>
       <r>    9.1883   -0.0000 </r>
       <r>    9.8731    0.0000 </r>
       <r>   10.0345    0.0000 </r>
       <r>   10.4900    0.0000 </r>
       <r>   10.6850    0.0000 </r>
       <r>   11.1455    0.0000 </r>
       <r>   11.3335    0.0000 </r>
       <r>   11.5108    0.0000 </r>
       <r>   12.1215    0.0000 </r>
       <r>   12.5590    0.0000 </r>
      </set>
      <set comment="kpoint 53">
       <r>   -6.8295    1.0000 </r>
       <r>   -6.4302    1.0000 </r>
       <r>   -6.3598    1.0000 </r>
       <r>   -6.2746    1.0000 </r>
       <r>    0.1934    1.0000 </r>
       <r>    0.3865    1.0000 </r>
       <r>    0.4376    1.0000 </r>
       <r>    0.5571    1.0000 </r>
       <r>    0.6740    1.0000 </r>
       <r>    0.7815    1.0000 </r>
       <r>    0.9502    1.0000 </r>
       <r>    0.9964    1.0000 </r>
       <r>    1.0435    1.0000 </r>
       <r>    1.1462    1.0000 </r>
       <r>    1.2957    1.0000 </r>
       <r>    1.3699    1.0000 </r>
       <r>    1.3936    1.0000 </r>
       <r>    1.4513    1.0000 </r>
       <r>    1.5500    1.0000 </r>
       <r>    1.5849    1.0000 </r>
       <r>    1.6936    1.0000 </r>
       <r>    1.7156    1.0000 </r>
       <r>    1.7991    1.0000 </r>
       <r>    1.8414    1.0000 </r>
       <r>    1.8983    1.0000 </r>
       <r>    2.0191    1.0000 </r>
       <r>    2.0471    1.0000 </r>
       <r>    2.1190    1.0000 </r>
       <r>    2.1875    1.0000 </r>
       <r>    2.2625    1.0000 </r>
       <r>    2.3024    1.0000 </r>
       <r>    2.3708    1.0000 </r>
       <r>    2.3874    1.0000 </r>
       <r>    2.4724    1.0000 </r>
       <r>    2.5134    1.0000 </r>
       <r>    2.5532    1.0000 </r>
       <r>    2.5927    1.0000 </r>
       <r>    2.6346    1.0000 </r>
       <r>    2.6821    1.0000 </r>
       <r>    2.6992    1.0000 </r>
       <r>    2.7561    1.0000 </r>
       <r>    2.8637    1.0000 </r>
       <r>    2.8842    1.0000 </r>
       <r>    2.9593    1.0000 </r>
       <r>    3.2519    1.0000 </r>
       <r>    3.3318    1.0000 </r>
       <r>    3.4965    1.0000 </r>
       <r>    4.0457    1.0000 </r>
       <r>    4.3998    1.0000 </r>
       <r>    4.5676    1.0000 </r>
       <r>    4.6605    1.0000 </r>
       <r>    5.1280    1.0000 </r>
       <r>    5.4506    1.0000 </r>
       <r>    5.6302    1.0000 </r>
       <r>    6.1830    1.0000 </r>
       <r>    6.3082    1.0018 </r>
       <r>    7.2799   -0.0000 </r>
       <r>    8.5491   -0.0000 </r>
       <r>    9.0623   -0.0000 </r>
       <r>    9.8312    0.0000 </r>
       <r>   10.2597    0.0000 </r>
       <r>   10.7530    0.0000 </r>
       <r>   11.0814    0.0000 </r>
       <r>   11.2254    0.0000 </r>
       <r>   11.5726    0.0000 </r>
       <r>   11.9038    0.0000 </r>
       <r>   12.0469    0.0000 </r>
       <r>   12.5661    0.0000 </r>
      </set>
      <set comment="kpoint 54">
       <r>   -6.8762    1.0000 </r>
       <r>   -6.4635    1.0000 </r>
       <r>   -6.3719    1.0000 </r>
       <r>   -6.2793    1.0000 </r>
       <r>    0.1536    1.0000 </r>
       <r>    0.3700    1.0000 </r>
       <r>    0.4388    1.0000 </r>
       <r>    0.5174    1.0000 </r>
       <r>    0.6158    1.0000 </r>
       <r>    0.7986    1.0000 </r>
       <r>    0.9346    1.0000 </r>
       <r>    0.9783    1.0000 </r>
       <r>    1.0356    1.0000 </r>
       <r>    1.1466    1.0000 </r>
       <r>    1.2691    1.0000 </r>
       <r>    1.3600    1.0000 </r>
       <r>    1.4014    1.0000 </r>
       <r>    1.4263    1.0000 </r>
       <r>    1.5309    1.0000 </r>
       <r>    1.6135    1.0000 </r>
       <r>    1.6768    1.0000 </r>
       <r>    1.7338    1.0000 </r>
       <r>    1.8358    1.0000 </r>
       <r>    1.8806    1.0000 </r>
       <r>    1.9514    1.0000 </r>
       <r>    1.9901    1.0000 </r>
       <r>    2.0581    1.0000 </r>
       <r>    2.1292    1.0000 </r>
       <r>    2.1805    1.0000 </r>
       <r>    2.2199    1.0000 </r>
       <r>    2.2794    1.0000 </r>
       <r>    2.3426    1.0000 </r>
       <r>    2.3694    1.0000 </r>
       <r>    2.4830    1.0000 </r>
       <r>    2.5258    1.0000 </r>
       <r>    2.5771    1.0000 </r>
       <r>    2.6006    1.0000 </r>
       <r>    2.6449    1.0000 </r>
       <r>    2.6980    1.0000 </r>
       <r>    2.7374    1.0000 </r>
       <r>    2.8094    1.0000 </r>
       <r>    2.8671    1.0000 </r>
       <r>    2.9338    1.0000 </r>
       <r>    2.9997    1.0000 </r>
       <r>    3.1680    1.0000 </r>
       <r>    3.2691    1.0000 </r>
       <r>    3.4089    1.0000 </r>
       <r>    4.0973    1.0000 </r>
       <r>    4.4868    1.0000 </r>
       <r>    4.6781    1.0000 </r>
       <r>    4.9167    1.0000 </r>
       <r>    5.3073    1.0000 </r>
       <r>    5.5740    1.0000 </r>
       <r>    5.9871    1.0000 </r>
       <r>    6.1893    1.0000 </r>
       <r>    6.3972    1.0274 </r>
       <r>    7.0357   -0.0000 </r>
       <r>    8.1216   -0.0000 </r>
       <r>    8.6668   -0.0000 </r>
       <r>    9.4681    0.0000 </r>
       <r>   10.3243    0.0000 </r>
       <r>   10.9571    0.0000 </r>
       <r>   11.1558    0.0000 </r>
       <r>   11.5830    0.0000 </r>
       <r>   11.8673    0.0000 </r>
       <r>   12.1399    0.0000 </r>
       <r>   12.3743    0.0000 </r>
       <r>   12.5464    0.0000 </r>
      </set>
      <set comment="kpoint 55">
       <r>   -6.8077    1.0000 </r>
       <r>   -6.4601    1.0000 </r>
       <r>   -6.4510    1.0000 </r>
       <r>   -6.3142    1.0000 </r>
       <r>    0.1690    1.0000 </r>
       <r>    0.2947    1.0000 </r>
       <r>    0.3925    1.0000 </r>
       <r>    0.5644    1.0000 </r>
       <r>    0.6645    1.0000 </r>
       <r>    0.7644    1.0000 </r>
       <r>    0.8051    1.0000 </r>
       <r>    1.0000    1.0000 </r>
       <r>    1.0579    1.0000 </r>
       <r>    1.1476    1.0000 </r>
       <r>    1.1909    1.0000 </r>
       <r>    1.2279    1.0000 </r>
       <r>    1.3742    1.0000 </r>
       <r>    1.4412    1.0000 </r>
       <r>    1.5507    1.0000 </r>
       <r>    1.6069    1.0000 </r>
       <r>    1.6843    1.0000 </r>
       <r>    1.7684    1.0000 </r>
       <r>    1.8337    1.0000 </r>
       <r>    1.8730    1.0000 </r>
       <r>    1.9746    1.0000 </r>
       <r>    2.0596    1.0000 </r>
       <r>    2.0868    1.0000 </r>
       <r>    2.1443    1.0000 </r>
       <r>    2.1942    1.0000 </r>
       <r>    2.2269    1.0000 </r>
       <r>    2.2708    1.0000 </r>
       <r>    2.3232    1.0000 </r>
       <r>    2.4299    1.0000 </r>
       <r>    2.4581    1.0000 </r>
       <r>    2.5026    1.0000 </r>
       <r>    2.5561    1.0000 </r>
       <r>    2.6137    1.0000 </r>
       <r>    2.6505    1.0000 </r>
       <r>    2.7208    1.0000 </r>
       <r>    2.7362    1.0000 </r>
       <r>    2.8209    1.0000 </r>
       <r>    2.8774    1.0000 </r>
       <r>    2.9120    1.0000 </r>
       <r>    3.0182    1.0000 </r>
       <r>    3.0700    1.0000 </r>
       <r>    3.2386    1.0000 </r>
       <r>    3.4101    1.0000 </r>
       <r>    4.1701    1.0000 </r>
       <r>    4.7976    1.0000 </r>
       <r>    4.8955    1.0000 </r>
       <r>    5.2061    1.0000 </r>
       <r>    5.3284    1.0000 </r>
       <r>    5.7539    1.0000 </r>
       <r>    6.0314    1.0000 </r>
       <r>    6.1367    1.0000 </r>
       <r>    6.4101    1.0326 </r>
       <r>    7.3400   -0.0000 </r>
       <r>    7.9266   -0.0000 </r>
       <r>    8.0584   -0.0000 </r>
       <r>    8.7547   -0.0000 </r>
       <r>   10.7743    0.0000 </r>
       <r>   11.0265    0.0000 </r>
       <r>   11.1698    0.0000 </r>
       <r>   11.5210    0.0000 </r>
       <r>   11.6850    0.0000 </r>
       <r>   12.0400    0.0000 </r>
       <r>   12.1617    0.0000 </r>
       <r>   12.3008    0.0000 </r>
      </set>
      <set comment="kpoint 56">
       <r>   -6.7754    1.0000 </r>
       <r>   -6.4723    1.0000 </r>
       <r>   -6.4343    1.0000 </r>
       <r>   -6.3186    1.0000 </r>
       <r>    0.1898    1.0000 </r>
       <r>    0.3205    1.0000 </r>
       <r>    0.4159    1.0000 </r>
       <r>    0.5788    1.0000 </r>
       <r>    0.6860    1.0000 </r>
       <r>    0.7041    1.0000 </r>
       <r>    0.8194    1.0000 </r>
       <r>    1.0257    1.0000 </r>
       <r>    1.0653    1.0000 </r>
       <r>    1.1533    1.0000 </r>
       <r>    1.1965    1.0000 </r>
       <r>    1.2370    1.0000 </r>
       <r>    1.3452    1.0000 </r>
       <r>    1.4518    1.0000 </r>
       <r>    1.5532    1.0000 </r>
       <r>    1.5952    1.0000 </r>
       <r>    1.6816    1.0000 </r>
       <r>    1.7358    1.0000 </r>
       <r>    1.8306    1.0000 </r>
       <r>    1.8923    1.0000 </r>
       <r>    1.9454    1.0000 </r>
       <r>    2.0553    1.0000 </r>
       <r>    2.0952    1.0000 </r>
       <r>    2.1391    1.0000 </r>
       <r>    2.1523    1.0000 </r>
       <r>    2.2279    1.0000 </r>
       <r>    2.2879    1.0000 </r>
       <r>    2.3534    1.0000 </r>
       <r>    2.4036    1.0000 </r>
       <r>    2.4540    1.0000 </r>
       <r>    2.4970    1.0000 </r>
       <r>    2.5457    1.0000 </r>
       <r>    2.6313    1.0000 </r>
       <r>    2.6545    1.0000 </r>
       <r>    2.7121    1.0000 </r>
       <r>    2.7563    1.0000 </r>
       <r>    2.8192    1.0000 </r>
       <r>    2.8811    1.0000 </r>
       <r>    2.9020    1.0000 </r>
       <r>    3.0060    1.0000 </r>
       <r>    3.0596    1.0000 </r>
       <r>    3.2864    1.0000 </r>
       <r>    3.4813    1.0000 </r>
       <r>    4.1315    1.0000 </r>
       <r>    4.6215    1.0000 </r>
       <r>    4.8246    1.0000 </r>
       <r>    5.2360    1.0000 </r>
       <r>    5.2918    1.0000 </r>
       <r>    5.5962    1.0000 </r>
       <r>    5.9039    1.0000 </r>
       <r>    6.0848    1.0000 </r>
       <r>    6.3653    1.0135 </r>
       <r>    7.5090   -0.0000 </r>
       <r>    8.0811   -0.0000 </r>
       <r>    8.4425   -0.0000 </r>
       <r>    8.9610   -0.0000 </r>
       <r>   10.8085    0.0000 </r>
       <r>   10.8594    0.0000 </r>
       <r>   11.0249    0.0000 </r>
       <r>   11.2429    0.0000 </r>
       <r>   11.3999    0.0000 </r>
       <r>   11.6877    0.0000 </r>
       <r>   12.0559    0.0000 </r>
       <r>   12.1625    0.0000 </r>
      </set>
      <set comment="kpoint 57">
       <r>   -6.7108    1.0000 </r>
       <r>   -6.4725    1.0000 </r>
       <r>   -6.4028    1.0000 </r>
       <r>   -6.3179    1.0000 </r>
       <r>    0.2273    1.0000 </r>
       <r>    0.3534    1.0000 </r>
       <r>    0.4843    1.0000 </r>
       <r>    0.5399    1.0000 </r>
       <r>    0.6928    1.0000 </r>
       <r>    0.7735    1.0000 </r>
       <r>    0.8200    1.0000 </r>
       <r>    1.0444    1.0000 </r>
       <r>    1.0705    1.0000 </r>
       <r>    1.1471    1.0000 </r>
       <r>    1.2220    1.0000 </r>
       <r>    1.2776    1.0000 </r>
       <r>    1.3200    1.0000 </r>
       <r>    1.4541    1.0000 </r>
       <r>    1.5415    1.0000 </r>
       <r>    1.5747    1.0000 </r>
       <r>    1.6346    1.0000 </r>
       <r>    1.7188    1.0000 </r>
       <r>    1.8055    1.0000 </r>
       <r>    1.8758    1.0000 </r>
       <r>    1.9564    1.0000 </r>
       <r>    2.0193    1.0000 </r>
       <r>    2.0822    1.0000 </r>
       <r>    2.1294    1.0000 </r>
       <r>    2.1622    1.0000 </r>
       <r>    2.2262    1.0000 </r>
       <r>    2.3008    1.0000 </r>
       <r>    2.3655    1.0000 </r>
       <r>    2.4082    1.0000 </r>
       <r>    2.4403    1.0000 </r>
       <r>    2.5058    1.0000 </r>
       <r>    2.5393    1.0000 </r>
       <r>    2.6247    1.0000 </r>
       <r>    2.6405    1.0000 </r>
       <r>    2.6827    1.0000 </r>
       <r>    2.7500    1.0000 </r>
       <r>    2.8084    1.0000 </r>
       <r>    2.8441    1.0000 </r>
       <r>    2.8949    1.0000 </r>
       <r>    2.9993    1.0000 </r>
       <r>    3.1488    1.0000 </r>
       <r>    3.3876    1.0000 </r>
       <r>    3.6021    1.0000 </r>
       <r>    4.1299    1.0000 </r>
       <r>    4.3218    1.0000 </r>
       <r>    4.6659    1.0000 </r>
       <r>    5.0013    1.0000 </r>
       <r>    5.1012    1.0000 </r>
       <r>    5.5411    1.0000 </r>
       <r>    5.6838    1.0000 </r>
       <r>    5.9754    1.0000 </r>
       <r>    6.2648    1.0002 </r>
       <r>    7.8084   -0.0000 </r>
       <r>    8.4368   -0.0000 </r>
       <r>    8.9964   -0.0000 </r>
       <r>    9.3869    0.0000 </r>
       <r>   10.2725    0.0000 </r>
       <r>   10.4843    0.0000 </r>
       <r>   10.8115    0.0000 </r>
       <r>   11.0837    0.0000 </r>
       <r>   11.3199    0.0000 </r>
       <r>   11.4640    0.0000 </r>
       <r>   11.9866    0.0000 </r>
       <r>   12.1058    0.0000 </r>
      </set>
      <set comment="kpoint 58">
       <r>   -6.6248    1.0000 </r>
       <r>   -6.4589    1.0000 </r>
       <r>   -6.3680    1.0000 </r>
       <r>   -6.3113    1.0000 </r>
       <r>    0.2565    1.0000 </r>
       <r>    0.3808    1.0000 </r>
       <r>    0.4636    1.0000 </r>
       <r>    0.5913    1.0000 </r>
       <r>    0.7378    1.0000 </r>
       <r>    0.7998    1.0000 </r>
       <r>    0.8886    1.0000 </r>
       <r>    1.0285    1.0000 </r>
       <r>    1.0818    1.0000 </r>
       <r>    1.1447    1.0000 </r>
       <r>    1.2189    1.0000 </r>
       <r>    1.2912    1.0000 </r>
       <r>    1.3658    1.0000 </r>
       <r>    1.4728    1.0000 </r>
       <r>    1.5226    1.0000 </r>
       <r>    1.5655    1.0000 </r>
       <r>    1.6325    1.0000 </r>
       <r>    1.6923    1.0000 </r>
       <r>    1.7807    1.0000 </r>
       <r>    1.8665    1.0000 </r>
       <r>    1.9383    1.0000 </r>
       <r>    1.9964    1.0000 </r>
       <r>    2.0672    1.0000 </r>
       <r>    2.1509    1.0000 </r>
       <r>    2.1707    1.0000 </r>
       <r>    2.2169    1.0000 </r>
       <r>    2.2936    1.0000 </r>
       <r>    2.3443    1.0000 </r>
       <r>    2.3965    1.0000 </r>
       <r>    2.4553    1.0000 </r>
       <r>    2.5135    1.0000 </r>
       <r>    2.5217    1.0000 </r>
       <r>    2.5977    1.0000 </r>
       <r>    2.6153    1.0000 </r>
       <r>    2.6620    1.0000 </r>
       <r>    2.7266    1.0000 </r>
       <r>    2.7618    1.0000 </r>
       <r>    2.8214    1.0000 </r>
       <r>    2.8835    1.0000 </r>
       <r>    3.0124    1.0000 </r>
       <r>    3.3325    1.0000 </r>
       <r>    3.4668    1.0000 </r>
       <r>    3.6967    1.0000 </r>
       <r>    3.9472    1.0000 </r>
       <r>    4.2300    1.0000 </r>
       <r>    4.5011    1.0000 </r>
       <r>    4.6562    1.0000 </r>
       <r>    4.8401    1.0000 </r>
       <r>    5.5222    1.0000 </r>
       <r>    5.5796    1.0000 </r>
       <r>    5.8986    1.0000 </r>
       <r>    6.1453    1.0000 </r>
       <r>    8.0494   -0.0000 </r>
       <r>    8.6336   -0.0000 </r>
       <r>    9.1697   -0.0000 </r>
       <r>    9.5621    0.0000 </r>
       <r>    9.8981    0.0000 </r>
       <r>   10.1962    0.0000 </r>
       <r>   10.6582    0.0000 </r>
       <r>   10.8909    0.0000 </r>
       <r>   11.4137    0.0000 </r>
       <r>   11.6952    0.0000 </r>
       <r>   11.9462    0.0000 </r>
       <r>   12.2534    0.0000 </r>
      </set>
      <set comment="kpoint 59">
       <r>   -6.5325    1.0000 </r>
       <r>   -6.4338    1.0000 </r>
       <r>   -6.3442    1.0000 </r>
       <r>   -6.2978    1.0000 </r>
       <r>    0.2656    1.0000 </r>
       <r>    0.3315    1.0000 </r>
       <r>    0.4787    1.0000 </r>
       <r>    0.6511    1.0000 </r>
       <r>    0.7585    1.0000 </r>
       <r>    0.8145    1.0000 </r>
       <r>    0.9513    1.0000 </r>
       <r>    1.0306    1.0000 </r>
       <r>    1.1080    1.0000 </r>
       <r>    1.1381    1.0000 </r>
       <r>    1.2058    1.0000 </r>
       <r>    1.3332    1.0000 </r>
       <r>    1.4015    1.0000 </r>
       <r>    1.5076    1.0000 </r>
       <r>    1.5525    1.0000 </r>
       <r>    1.5956    1.0000 </r>
       <r>    1.6590    1.0000 </r>
       <r>    1.7151    1.0000 </r>
       <r>    1.7856    1.0000 </r>
       <r>    1.8630    1.0000 </r>
       <r>    1.8992    1.0000 </r>
       <r>    2.0120    1.0000 </r>
       <r>    2.0443    1.0000 </r>
       <r>    2.1367    1.0000 </r>
       <r>    2.1755    1.0000 </r>
       <r>    2.2239    1.0000 </r>
       <r>    2.2592    1.0000 </r>
       <r>    2.3108    1.0000 </r>
       <r>    2.3649    1.0000 </r>
       <r>    2.4394    1.0000 </r>
       <r>    2.4813    1.0000 </r>
       <r>    2.5260    1.0000 </r>
       <r>    2.5628    1.0000 </r>
       <r>    2.5987    1.0000 </r>
       <r>    2.6441    1.0000 </r>
       <r>    2.7065    1.0000 </r>
       <r>    2.7372    1.0000 </r>
       <r>    2.8194    1.0000 </r>
       <r>    2.8587    1.0000 </r>
       <r>    3.0189    1.0000 </r>
       <r>    3.2846    1.0000 </r>
       <r>    3.5248    1.0000 </r>
       <r>    3.6932    1.0000 </r>
       <r>    3.8288    1.0000 </r>
       <r>    4.2684    1.0000 </r>
       <r>    4.4014    1.0000 </r>
       <r>    4.4864    1.0000 </r>
       <r>    4.7053    1.0000 </r>
       <r>    5.4379    1.0000 </r>
       <r>    5.5578    1.0000 </r>
       <r>    5.7709    1.0000 </r>
       <r>    6.0215    1.0000 </r>
       <r>    8.1457   -0.0000 </r>
       <r>    8.4600   -0.0000 </r>
       <r>    8.7761   -0.0000 </r>
       <r>    9.4860    0.0000 </r>
       <r>    9.8165    0.0000 </r>
       <r>   10.3012    0.0000 </r>
       <r>   10.6855    0.0000 </r>
       <r>   11.0389    0.0000 </r>
       <r>   11.4493    0.0000 </r>
       <r>   11.7036    0.0000 </r>
       <r>   12.2104    0.0000 </r>
       <r>   12.6830    0.0000 </r>
      </set>
      <set comment="kpoint 60">
       <r>   -6.4512    1.0000 </r>
       <r>   -6.4022    1.0000 </r>
       <r>   -6.3408    1.0000 </r>
       <r>   -6.2827    1.0000 </r>
       <r>    0.2413    1.0000 </r>
       <r>    0.2939    1.0000 </r>
       <r>    0.4754    1.0000 </r>
       <r>    0.6733    1.0000 </r>
       <r>    0.7522    1.0000 </r>
       <r>    0.8640    1.0000 </r>
       <r>    0.9528    1.0000 </r>
       <r>    1.0156    1.0000 </r>
       <r>    1.1303    1.0000 </r>
       <r>    1.2145    1.0000 </r>
       <r>    1.2539    1.0000 </r>
       <r>    1.3418    1.0000 </r>
       <r>    1.4358    1.0000 </r>
       <r>    1.5537    1.0000 </r>
       <r>    1.5885    1.0000 </r>
       <r>    1.6427    1.0000 </r>
       <r>    1.7016    1.0000 </r>
       <r>    1.7506    1.0000 </r>
       <r>    1.8263    1.0000 </r>
       <r>    1.8639    1.0000 </r>
       <r>    1.9122    1.0000 </r>
       <r>    2.0091    1.0000 </r>
       <r>    2.0367    1.0000 </r>
       <r>    2.1314    1.0000 </r>
       <r>    2.1630    1.0000 </r>
       <r>    2.2071    1.0000 </r>
       <r>    2.2299    1.0000 </r>
       <r>    2.2852    1.0000 </r>
       <r>    2.3507    1.0000 </r>
       <r>    2.4024    1.0000 </r>
       <r>    2.4737    1.0000 </r>
       <r>    2.4887    1.0000 </r>
       <r>    2.5240    1.0000 </r>
       <r>    2.5549    1.0000 </r>
       <r>    2.6332    1.0000 </r>
       <r>    2.6989    1.0000 </r>
       <r>    2.7276    1.0000 </r>
       <r>    2.7836    1.0000 </r>
       <r>    2.8581    1.0000 </r>
       <r>    2.9982    1.0000 </r>
       <r>    3.1471    1.0000 </r>
       <r>    3.4031    1.0000 </r>
       <r>    3.5047    1.0000 </r>
       <r>    3.9131    1.0000 </r>
       <r>    4.2418    1.0000 </r>
       <r>    4.4204    1.0000 </r>
       <r>    4.5755    1.0000 </r>
       <r>    4.7940    1.0000 </r>
       <r>    5.2953    1.0000 </r>
       <r>    5.5114    1.0000 </r>
       <r>    5.5908    1.0000 </r>
       <r>    5.9624    1.0000 </r>
       <r>    8.1411   -0.0000 </r>
       <r>    8.2740   -0.0000 </r>
       <r>    8.5293   -0.0000 </r>
       <r>    9.2324   -0.0000 </r>
       <r>    9.5969    0.0000 </r>
       <r>   10.6566    0.0000 </r>
       <r>   10.7990    0.0000 </r>
       <r>   11.2583    0.0000 </r>
       <r>   11.5723    0.0000 </r>
       <r>   11.6124    0.0000 </r>
       <r>   12.2597    0.0000 </r>
       <r>   12.6000    0.0000 </r>
      </set>
      <set comment="kpoint 61">
       <r>   -6.3967    1.0000 </r>
       <r>   -6.3749    1.0000 </r>
       <r>   -6.3571    1.0000 </r>
       <r>   -6.2732    1.0000 </r>
       <r>    0.2102    1.0000 </r>
       <r>    0.2768    1.0000 </r>
       <r>    0.4655    1.0000 </r>
       <r>    0.6629    1.0000 </r>
       <r>    0.8082    1.0000 </r>
       <r>    0.8596    1.0000 </r>
       <r>    0.9457    1.0000 </r>
       <r>    1.0262    1.0000 </r>
       <r>    1.1473    1.0000 </r>
       <r>    1.2376    1.0000 </r>
       <r>    1.3020    1.0000 </r>
       <r>    1.3805    1.0000 </r>
       <r>    1.4829    1.0000 </r>
       <r>    1.5865    1.0000 </r>
       <r>    1.6275    1.0000 </r>
       <r>    1.6630    1.0000 </r>
       <r>    1.6923    1.0000 </r>
       <r>    1.7919    1.0000 </r>
       <r>    1.8381    1.0000 </r>
       <r>    1.8801    1.0000 </r>
       <r>    1.9276    1.0000 </r>
       <r>    2.0012    1.0000 </r>
       <r>    2.0827    1.0000 </r>
       <r>    2.1120    1.0000 </r>
       <r>    2.1747    1.0000 </r>
       <r>    2.2062    1.0000 </r>
       <r>    2.2405    1.0000 </r>
       <r>    2.2673    1.0000 </r>
       <r>    2.3492    1.0000 </r>
       <r>    2.3639    1.0000 </r>
       <r>    2.4227    1.0000 </r>
       <r>    2.4586    1.0000 </r>
       <r>    2.5088    1.0000 </r>
       <r>    2.5365    1.0000 </r>
       <r>    2.6198    1.0000 </r>
       <r>    2.6790    1.0000 </r>
       <r>    2.7112    1.0000 </r>
       <r>    2.7386    1.0000 </r>
       <r>    2.8919    1.0000 </r>
       <r>    2.9573    1.0000 </r>
       <r>    3.0976    1.0000 </r>
       <r>    3.1724    1.0000 </r>
       <r>    3.4286    1.0000 </r>
       <r>    3.8371    1.0000 </r>
       <r>    4.2638    1.0000 </r>
       <r>    4.4127    1.0000 </r>
       <r>    4.6528    1.0000 </r>
       <r>    4.8960    1.0000 </r>
       <r>    5.1713    1.0000 </r>
       <r>    5.5098    1.0000 </r>
       <r>    5.5914    1.0000 </r>
       <r>    5.9702    1.0000 </r>
       <r>    8.1598   -0.0000 </r>
       <r>    8.3035   -0.0000 </r>
       <r>    8.4596   -0.0000 </r>
       <r>    9.0171   -0.0000 </r>
       <r>    9.3981    0.0000 </r>
       <r>   10.7999    0.0000 </r>
       <r>   10.9438    0.0000 </r>
       <r>   11.2904    0.0000 </r>
       <r>   11.5521    0.0000 </r>
       <r>   11.8441    0.0000 </r>
       <r>   12.0755    0.0000 </r>
       <r>   12.2864    0.0000 </r>
      </set>
      <set comment="kpoint 62">
       <r>   -6.4233    1.0000 </r>
       <r>   -6.3601    1.0000 </r>
       <r>   -6.3484    1.0000 </r>
       <r>   -6.2705    1.0000 </r>
       <r>    0.1999    1.0000 </r>
       <r>    0.2685    1.0000 </r>
       <r>    0.4839    1.0000 </r>
       <r>    0.6602    1.0000 </r>
       <r>    0.8218    1.0000 </r>
       <r>    0.8716    1.0000 </r>
       <r>    0.9476    1.0000 </r>
       <r>    1.0464    1.0000 </r>
       <r>    1.1409    1.0000 </r>
       <r>    1.2349    1.0000 </r>
       <r>    1.2867    1.0000 </r>
       <r>    1.4301    1.0000 </r>
       <r>    1.5207    1.0000 </r>
       <r>    1.5722    1.0000 </r>
       <r>    1.6133    1.0000 </r>
       <r>    1.6600    1.0000 </r>
       <r>    1.6980    1.0000 </r>
       <r>    1.7857    1.0000 </r>
       <r>    1.8278    1.0000 </r>
       <r>    1.9026    1.0000 </r>
       <r>    1.9509    1.0000 </r>
       <r>    1.9875    1.0000 </r>
       <r>    2.0845    1.0000 </r>
       <r>    2.1251    1.0000 </r>
       <r>    2.1878    1.0000 </r>
       <r>    2.2244    1.0000 </r>
       <r>    2.2624    1.0000 </r>
       <r>    2.2840    1.0000 </r>
       <r>    2.3269    1.0000 </r>
       <r>    2.3666    1.0000 </r>
       <r>    2.4109    1.0000 </r>
       <r>    2.4406    1.0000 </r>
       <r>    2.5184    1.0000 </r>
       <r>    2.5567    1.0000 </r>
       <r>    2.6166    1.0000 </r>
       <r>    2.6439    1.0000 </r>
       <r>    2.7146    1.0000 </r>
       <r>    2.7586    1.0000 </r>
       <r>    2.8066    1.0000 </r>
       <r>    2.9567    1.0000 </r>
       <r>    3.0335    1.0000 </r>
       <r>    3.1241    1.0000 </r>
       <r>    3.4600    1.0000 </r>
       <r>    3.7674    1.0000 </r>
       <r>    4.0563    1.0000 </r>
       <r>    4.3468    1.0000 </r>
       <r>    4.6669    1.0000 </r>
       <r>    4.8591    1.0000 </r>
       <r>    5.2838    1.0000 </r>
       <r>    5.6248    1.0000 </r>
       <r>    5.7548    1.0000 </r>
       <r>    6.0169    1.0000 </r>
       <r>    8.1870   -0.0000 </r>
       <r>    8.5152   -0.0000 </r>
       <r>    8.5828   -0.0000 </r>
       <r>    8.9814   -0.0000 </r>
       <r>    9.3165    0.0000 </r>
       <r>   10.7510    0.0000 </r>
       <r>   10.8957    0.0000 </r>
       <r>   11.1495    0.0000 </r>
       <r>   11.3602    0.0000 </r>
       <r>   11.6720    0.0000 </r>
       <r>   12.0196    0.0000 </r>
       <r>   12.4674    0.0000 </r>
      </set>
      <set comment="kpoint 63">
       <r>   -6.5026    1.0000 </r>
       <r>   -6.3554    1.0000 </r>
       <r>   -6.3447    1.0000 </r>
       <r>   -6.2742    1.0000 </r>
       <r>    0.2137    1.0000 </r>
       <r>    0.2767    1.0000 </r>
       <r>    0.4985    1.0000 </r>
       <r>    0.6595    1.0000 </r>
       <r>    0.8106    1.0000 </r>
       <r>    0.8373    1.0000 </r>
       <r>    0.9897    1.0000 </r>
       <r>    1.0607    1.0000 </r>
       <r>    1.1267    1.0000 </r>
       <r>    1.1941    1.0000 </r>
       <r>    1.2923    1.0000 </r>
       <r>    1.4331    1.0000 </r>
       <r>    1.5188    1.0000 </r>
       <r>    1.5533    1.0000 </r>
       <r>    1.5728    1.0000 </r>
       <r>    1.6596    1.0000 </r>
       <r>    1.6757    1.0000 </r>
       <r>    1.7432    1.0000 </r>
       <r>    1.7961    1.0000 </r>
       <r>    1.8776    1.0000 </r>
       <r>    1.9249    1.0000 </r>
       <r>    1.9914    1.0000 </r>
       <r>    2.0892    1.0000 </r>
       <r>    2.1301    1.0000 </r>
       <r>    2.2021    1.0000 </r>
       <r>    2.2587    1.0000 </r>
       <r>    2.2756    1.0000 </r>
       <r>    2.3225    1.0000 </r>
       <r>    2.3553    1.0000 </r>
       <r>    2.3937    1.0000 </r>
       <r>    2.4195    1.0000 </r>
       <r>    2.4534    1.0000 </r>
       <r>    2.5265    1.0000 </r>
       <r>    2.5583    1.0000 </r>
       <r>    2.6030    1.0000 </r>
       <r>    2.6539    1.0000 </r>
       <r>    2.6964    1.0000 </r>
       <r>    2.7546    1.0000 </r>
       <r>    2.8258    1.0000 </r>
       <r>    2.9802    1.0000 </r>
       <r>    3.0682    1.0000 </r>
       <r>    3.1428    1.0000 </r>
       <r>    3.5294    1.0000 </r>
       <r>    3.7507    1.0000 </r>
       <r>    3.9311    1.0000 </r>
       <r>    4.1498    1.0000 </r>
       <r>    4.7137    1.0000 </r>
       <r>    4.9103    1.0000 </r>
       <r>    5.4618    1.0000 </r>
       <r>    5.6292    1.0000 </r>
       <r>    5.8726    1.0000 </r>
       <r>    6.1412    1.0000 </r>
       <r>    8.1477   -0.0000 </r>
       <r>    8.7198   -0.0000 </r>
       <r>    9.0325   -0.0000 </r>
       <r>    9.1630   -0.0000 </r>
       <r>    9.4302    0.0000 </r>
       <r>   10.4964    0.0000 </r>
       <r>   10.6567    0.0000 </r>
       <r>   10.8416    0.0000 </r>
       <r>   11.2016    0.0000 </r>
       <r>   11.5140    0.0000 </r>
       <r>   11.9632    0.0000 </r>
       <r>   12.3682    0.0000 </r>
      </set>
      <set comment="kpoint 64">
       <r>   -6.5967    1.0000 </r>
       <r>   -6.3759    1.0000 </r>
       <r>   -6.3524    1.0000 </r>
       <r>   -6.2807    1.0000 </r>
       <r>    0.2327    1.0000 </r>
       <r>    0.3129    1.0000 </r>
       <r>    0.4680    1.0000 </r>
       <r>    0.6310    1.0000 </r>
       <r>    0.7523    1.0000 </r>
       <r>    0.8300    1.0000 </r>
       <r>    0.9803    1.0000 </r>
       <r>    1.0803    1.0000 </r>
       <r>    1.1397    1.0000 </r>
       <r>    1.1917    1.0000 </r>
       <r>    1.2686    1.0000 </r>
       <r>    1.3419    1.0000 </r>
       <r>    1.4980    1.0000 </r>
       <r>    1.5295    1.0000 </r>
       <r>    1.5543    1.0000 </r>
       <r>    1.6042    1.0000 </r>
       <r>    1.6937    1.0000 </r>
       <r>    1.7259    1.0000 </r>
       <r>    1.7624    1.0000 </r>
       <r>    1.8511    1.0000 </r>
       <r>    1.9422    1.0000 </r>
       <r>    1.9706    1.0000 </r>
       <r>    2.0683    1.0000 </r>
       <r>    2.1002    1.0000 </r>
       <r>    2.2141    1.0000 </r>
       <r>    2.2687    1.0000 </r>
       <r>    2.3130    1.0000 </r>
       <r>    2.3507    1.0000 </r>
       <r>    2.4037    1.0000 </r>
       <r>    2.4212    1.0000 </r>
       <r>    2.4485    1.0000 </r>
       <r>    2.4885    1.0000 </r>
       <r>    2.5241    1.0000 </r>
       <r>    2.5592    1.0000 </r>
       <r>    2.5937    1.0000 </r>
       <r>    2.6456    1.0000 </r>
       <r>    2.7081    1.0000 </r>
       <r>    2.7746    1.0000 </r>
       <r>    2.8592    1.0000 </r>
       <r>    2.9758    1.0000 </r>
       <r>    3.1872    1.0000 </r>
       <r>    3.2524    1.0000 </r>
       <r>    3.5309    1.0000 </r>
       <r>    3.7589    1.0000 </r>
       <r>    3.9252    1.0000 </r>
       <r>    4.3259    1.0000 </r>
       <r>    4.7065    1.0000 </r>
       <r>    5.0290    1.0000 </r>
       <r>    5.4635    1.0000 </r>
       <r>    5.5959    1.0000 </r>
       <r>    5.9208    1.0000 </r>
       <r>    6.2597    1.0002 </r>
       <r>    8.0863   -0.0000 </r>
       <r>    8.9614   -0.0000 </r>
       <r>    9.2493   -0.0000 </r>
       <r>    9.4490    0.0000 </r>
       <r>    9.9038    0.0000 </r>
       <r>   10.1858    0.0000 </r>
       <r>   10.3394    0.0000 </r>
       <r>   10.7569    0.0000 </r>
       <r>   11.1570    0.0000 </r>
       <r>   11.4200    0.0000 </r>
       <r>   11.9938    0.0000 </r>
       <r>   12.4310    0.0000 </r>
      </set>
      <set comment="kpoint 65">
       <r>   -6.6878    1.0000 </r>
       <r>   -6.4070    1.0000 </r>
       <r>   -6.3743    1.0000 </r>
       <r>   -6.2880    1.0000 </r>
       <r>    0.2307    1.0000 </r>
       <r>    0.3583    1.0000 </r>
       <r>    0.4322    1.0000 </r>
       <r>    0.5645    1.0000 </r>
       <r>    0.6689    1.0000 </r>
       <r>    0.8322    1.0000 </r>
       <r>    0.9825    1.0000 </r>
       <r>    1.0771    1.0000 </r>
       <r>    1.1352    1.0000 </r>
       <r>    1.1597    1.0000 </r>
       <r>    1.1902    1.0000 </r>
       <r>    1.2999    1.0000 </r>
       <r>    1.4298    1.0000 </r>
       <r>    1.4991    1.0000 </r>
       <r>    1.5511    1.0000 </r>
       <r>    1.5973    1.0000 </r>
       <r>    1.6956    1.0000 </r>
       <r>    1.7359    1.0000 </r>
       <r>    1.8123    1.0000 </r>
       <r>    1.8418    1.0000 </r>
       <r>    1.9335    1.0000 </r>
       <r>    1.9866    1.0000 </r>
       <r>    2.0337    1.0000 </r>
       <r>    2.0857    1.0000 </r>
       <r>    2.2132    1.0000 </r>
       <r>    2.2702    1.0000 </r>
       <r>    2.3371    1.0000 </r>
       <r>    2.3840    1.0000 </r>
       <r>    2.4126    1.0000 </r>
       <r>    2.4304    1.0000 </r>
       <r>    2.4657    1.0000 </r>
       <r>    2.4984    1.0000 </r>
       <r>    2.5405    1.0000 </r>
       <r>    2.5718    1.0000 </r>
       <r>    2.6257    1.0000 </r>
       <r>    2.6635    1.0000 </r>
       <r>    2.7232    1.0000 </r>
       <r>    2.8171    1.0000 </r>
       <r>    2.8814    1.0000 </r>
       <r>    2.9669    1.0000 </r>
       <r>    3.2247    1.0000 </r>
       <r>    3.2888    1.0000 </r>
       <r>    3.5636    1.0000 </r>
       <r>    3.8463    1.0000 </r>
       <r>    4.2359    1.0000 </r>
       <r>    4.6079    1.0000 </r>
       <r>    4.8231    1.0000 </r>
       <r>    5.0879    1.0000 </r>
       <r>    5.3117    1.0000 </r>
       <r>    5.5749    1.0000 </r>
       <r>    6.0240    1.0000 </r>
       <r>    6.2769    1.0004 </r>
       <r>    7.9341   -0.0000 </r>
       <r>    8.8918   -0.0000 </r>
       <r>    9.0971   -0.0000 </r>
       <r>    9.5548    0.0000 </r>
       <r>   10.1453    0.0000 </r>
       <r>   10.3473    0.0000 </r>
       <r>   10.7022    0.0000 </r>
       <r>   10.9185    0.0000 </r>
       <r>   11.0722    0.0000 </r>
       <r>   11.5436    0.0000 </r>
       <r>   12.1107    0.0000 </r>
       <r>   12.5569    0.0000 </r>
      </set>
      <set comment="kpoint 66">
       <r>   -6.7604    1.0000 </r>
       <r>   -6.4363    1.0000 </r>
       <r>   -6.4035    1.0000 </r>
       <r>   -6.2968    1.0000 </r>
       <r>    0.2065    1.0000 </r>
       <r>    0.3420    1.0000 </r>
       <r>    0.4035    1.0000 </r>
       <r>    0.5594    1.0000 </r>
       <r>    0.6491    1.0000 </r>
       <r>    0.7694    1.0000 </r>
       <r>    0.9464    1.0000 </r>
       <r>    1.0571    1.0000 </r>
       <r>    1.0867    1.0000 </r>
       <r>    1.1134    1.0000 </r>
       <r>    1.1845    1.0000 </r>
       <r>    1.2888    1.0000 </r>
       <r>    1.3748    1.0000 </r>
       <r>    1.4690    1.0000 </r>
       <r>    1.5702    1.0000 </r>
       <r>    1.6134    1.0000 </r>
       <r>    1.6672    1.0000 </r>
       <r>    1.7398    1.0000 </r>
       <r>    1.8502    1.0000 </r>
       <r>    1.8880    1.0000 </r>
       <r>    1.9225    1.0000 </r>
       <r>    1.9849    1.0000 </r>
       <r>    2.0387    1.0000 </r>
       <r>    2.1322    1.0000 </r>
       <r>    2.2023    1.0000 </r>
       <r>    2.2648    1.0000 </r>
       <r>    2.2981    1.0000 </r>
       <r>    2.3501    1.0000 </r>
       <r>    2.4340    1.0000 </r>
       <r>    2.4537    1.0000 </r>
       <r>    2.5030    1.0000 </r>
       <r>    2.5338    1.0000 </r>
       <r>    2.5516    1.0000 </r>
       <r>    2.6045    1.0000 </r>
       <r>    2.6587    1.0000 </r>
       <r>    2.6894    1.0000 </r>
       <r>    2.7589    1.0000 </r>
       <r>    2.8654    1.0000 </r>
       <r>    2.9104    1.0000 </r>
       <r>    2.9506    1.0000 </r>
       <r>    3.1599    1.0000 </r>
       <r>    3.2602    1.0000 </r>
       <r>    3.5358    1.0000 </r>
       <r>    4.1678    1.0000 </r>
       <r>    4.5182    1.0000 </r>
       <r>    4.7354    1.0000 </r>
       <r>    4.9880    1.0000 </r>
       <r>    5.1786    1.0000 </r>
       <r>    5.4890    1.0000 </r>
       <r>    5.5511    1.0000 </r>
       <r>    6.1082    1.0000 </r>
       <r>    6.2401    1.0001 </r>
       <r>    7.6737   -0.0000 </r>
       <r>    8.4838   -0.0000 </r>
       <r>    8.6845   -0.0000 </r>
       <r>    9.3308    0.0000 </r>
       <r>   10.4966    0.0000 </r>
       <r>   10.7663    0.0000 </r>
       <r>   11.0593    0.0000 </r>
       <r>   11.1709    0.0000 </r>
       <r>   11.3516    0.0000 </r>
       <r>   11.7466    0.0000 </r>
       <r>   12.1475    0.0000 </r>
       <r>   12.4606    0.0000 </r>
      </set>
      <set comment="kpoint 67">
       <r>   -6.8025    1.0000 </r>
       <r>   -6.4540    1.0000 </r>
       <r>   -6.4330    1.0000 </r>
       <r>   -6.3063    1.0000 </r>
       <r>    0.1779    1.0000 </r>
       <r>    0.3023    1.0000 </r>
       <r>    0.3877    1.0000 </r>
       <r>    0.5652    1.0000 </r>
       <r>    0.6843    1.0000 </r>
       <r>    0.7260    1.0000 </r>
       <r>    0.8686    1.0000 </r>
       <r>    1.0160    1.0000 </r>
       <r>    1.0597    1.0000 </r>
       <r>    1.1207    1.0000 </r>
       <r>    1.1982    1.0000 </r>
       <r>    1.2566    1.0000 </r>
       <r>    1.3772    1.0000 </r>
       <r>    1.4290    1.0000 </r>
       <r>    1.5804    1.0000 </r>
       <r>    1.6133    1.0000 </r>
       <r>    1.6572    1.0000 </r>
       <r>    1.7662    1.0000 </r>
       <r>    1.8194    1.0000 </r>
       <r>    1.8972    1.0000 </r>
       <r>    1.9645    1.0000 </r>
       <r>    2.0267    1.0000 </r>
       <r>    2.0762    1.0000 </r>
       <r>    2.1418    1.0000 </r>
       <r>    2.2040    1.0000 </r>
       <r>    2.2366    1.0000 </r>
       <r>    2.2801    1.0000 </r>
       <r>    2.3223    1.0000 </r>
       <r>    2.4340    1.0000 </r>
       <r>    2.4624    1.0000 </r>
       <r>    2.5159    1.0000 </r>
       <r>    2.5562    1.0000 </r>
       <r>    2.5802    1.0000 </r>
       <r>    2.6354    1.0000 </r>
       <r>    2.6968    1.0000 </r>
       <r>    2.7174    1.0000 </r>
       <r>    2.7974    1.0000 </r>
       <r>    2.8694    1.0000 </r>
       <r>    2.9233    1.0000 </r>
       <r>    3.0033    1.0000 </r>
       <r>    3.0910    1.0000 </r>
       <r>    3.2279    1.0000 </r>
       <r>    3.4540    1.0000 </r>
       <r>    4.3054    1.0000 </r>
       <r>    4.5866    1.0000 </r>
       <r>    4.9739    1.0000 </r>
       <r>    5.0528    1.0000 </r>
       <r>    5.3441    1.0000 </r>
       <r>    5.5962    1.0000 </r>
       <r>    5.9409    1.0000 </r>
       <r>    6.0885    1.0000 </r>
       <r>    6.2966    1.0011 </r>
       <r>    7.4245   -0.0000 </r>
       <r>    8.0833   -0.0000 </r>
       <r>    8.2251   -0.0000 </r>
       <r>    8.9594   -0.0000 </r>
       <r>   10.7246    0.0000 </r>
       <r>   11.0148    0.0000 </r>
       <r>   11.2228    0.0000 </r>
       <r>   11.4379    0.0000 </r>
       <r>   11.5742    0.0000 </r>
       <r>   11.9777    0.0000 </r>
       <r>   12.2482    0.0000 </r>
       <r>   12.5822    0.0000 </r>
      </set>
      <set comment="kpoint 68">
       <r>   -6.6972    1.0000 </r>
       <r>   -6.5708    1.0000 </r>
       <r>   -6.4104    1.0000 </r>
       <r>   -6.3593    1.0000 </r>
       <r>    0.2082    1.0000 </r>
       <r>    0.2465    1.0000 </r>
       <r>    0.4071    1.0000 </r>
       <r>    0.5309    1.0000 </r>
       <r>    0.6844    1.0000 </r>
       <r>    0.7370    1.0000 </r>
       <r>    0.8425    1.0000 </r>
       <r>    0.9415    1.0000 </r>
       <r>    1.0311    1.0000 </r>
       <r>    1.0588    1.0000 </r>
       <r>    1.1735    1.0000 </r>
       <r>    1.2101    1.0000 </r>
       <r>    1.3942    1.0000 </r>
       <r>    1.4337    1.0000 </r>
       <r>    1.5316    1.0000 </r>
       <r>    1.5487    1.0000 </r>
       <r>    1.6947    1.0000 </r>
       <r>    1.7540    1.0000 </r>
       <r>    1.8720    1.0000 </r>
       <r>    1.8845    1.0000 </r>
       <r>    2.0226    1.0000 </r>
       <r>    2.0616    1.0000 </r>
       <r>    2.1064    1.0000 </r>
       <r>    2.1525    1.0000 </r>
       <r>    2.2401    1.0000 </r>
       <r>    2.2746    1.0000 </r>
       <r>    2.2946    1.0000 </r>
       <r>    2.3383    1.0000 </r>
       <r>    2.3886    1.0000 </r>
       <r>    2.4505    1.0000 </r>
       <r>    2.5249    1.0000 </r>
       <r>    2.5368    1.0000 </r>
       <r>    2.5992    1.0000 </r>
       <r>    2.6489    1.0000 </r>
       <r>    2.6908    1.0000 </r>
       <r>    2.7265    1.0000 </r>
       <r>    2.8372    1.0000 </r>
       <r>    2.8881    1.0000 </r>
       <r>    2.9211    1.0000 </r>
       <r>    2.9873    1.0000 </r>
       <r>    3.0334    1.0000 </r>
       <r>    3.1180    1.0000 </r>
       <r>    3.7241    1.0000 </r>
       <r>    4.0410    1.0000 </r>
       <r>    5.0033    1.0000 </r>
       <r>    5.1689    1.0000 </r>
       <r>    5.3217    1.0000 </r>
       <r>    5.3569    1.0000 </r>
       <r>    5.7917    1.0000 </r>
       <r>    5.8682    1.0000 </r>
       <r>    6.1456    1.0000 </r>
       <r>    6.2699    1.0003 </r>
       <r>    7.6246   -0.0000 </r>
       <r>    7.8995   -0.0000 </r>
       <r>    7.9562   -0.0000 </r>
       <r>    8.2980   -0.0000 </r>
       <r>   10.9042    0.0000 </r>
       <r>   11.0036    0.0000 </r>
       <r>   11.1373    0.0000 </r>
       <r>   11.2554    0.0000 </r>
       <r>   11.6403    0.0000 </r>
       <r>   11.8090    0.0000 </r>
       <r>   12.1043    0.0000 </r>
       <r>   12.2104    0.0000 </r>
      </set>
      <set comment="kpoint 69">
       <r>   -6.6689    1.0000 </r>
       <r>   -6.5476    1.0000 </r>
       <r>   -6.4213    1.0000 </r>
       <r>   -6.3668    1.0000 </r>
       <r>    0.2472    1.0000 </r>
       <r>    0.2989    1.0000 </r>
       <r>    0.4138    1.0000 </r>
       <r>    0.5179    1.0000 </r>
       <r>    0.6551    1.0000 </r>
       <r>    0.7076    1.0000 </r>
       <r>    0.8529    1.0000 </r>
       <r>    0.9732    1.0000 </r>
       <r>    1.0382    1.0000 </r>
       <r>    1.0687    1.0000 </r>
       <r>    1.1840    1.0000 </r>
       <r>    1.2072    1.0000 </r>
       <r>    1.3589    1.0000 </r>
       <r>    1.4071    1.0000 </r>
       <r>    1.5637    1.0000 </r>
       <r>    1.6049    1.0000 </r>
       <r>    1.6767    1.0000 </r>
       <r>    1.7256    1.0000 </r>
       <r>    1.8636    1.0000 </r>
       <r>    1.8826    1.0000 </r>
       <r>    1.9963    1.0000 </r>
       <r>    2.0337    1.0000 </r>
       <r>    2.1193    1.0000 </r>
       <r>    2.1599    1.0000 </r>
       <r>    2.2357    1.0000 </r>
       <r>    2.2591    1.0000 </r>
       <r>    2.2818    1.0000 </r>
       <r>    2.3593    1.0000 </r>
       <r>    2.3782    1.0000 </r>
       <r>    2.4522    1.0000 </r>
       <r>    2.5148    1.0000 </r>
       <r>    2.5361    1.0000 </r>
       <r>    2.6110    1.0000 </r>
       <r>    2.6530    1.0000 </r>
       <r>    2.6990    1.0000 </r>
       <r>    2.7439    1.0000 </r>
       <r>    2.8362    1.0000 </r>
       <r>    2.8632    1.0000 </r>
       <r>    2.9267    1.0000 </r>
       <r>    2.9750    1.0000 </r>
       <r>    3.0432    1.0000 </r>
       <r>    3.1526    1.0000 </r>
       <r>    3.7713    1.0000 </r>
       <r>    4.0356    1.0000 </r>
       <r>    4.9487    1.0000 </r>
       <r>    4.9801    1.0000 </r>
       <r>    5.3031    1.0000 </r>
       <r>    5.3697    1.0000 </r>
       <r>    5.6017    1.0000 </r>
       <r>    5.7412    1.0000 </r>
       <r>    6.0610    1.0000 </r>
       <r>    6.1822    1.0000 </r>
       <r>    7.8411   -0.0000 </r>
       <r>    8.1280   -0.0000 </r>
       <r>    8.2476   -0.0000 </r>
       <r>    8.5804   -0.0000 </r>
       <r>   10.7835    0.0000 </r>
       <r>   10.8817    0.0000 </r>
       <r>   11.0894    0.0000 </r>
       <r>   11.2716    0.0000 </r>
       <r>   11.3394    0.0000 </r>
       <r>   11.5197    0.0000 </r>
       <r>   11.7058    0.0000 </r>
       <r>   12.0371    0.0000 </r>
      </set>
      <set comment="kpoint 70">
       <r>   -6.6140    1.0000 </r>
       <r>   -6.5045    1.0000 </r>
       <r>   -6.4214    1.0000 </r>
       <r>   -6.3666    1.0000 </r>
       <r>    0.2864    1.0000 </r>
       <r>    0.3585    1.0000 </r>
       <r>    0.4595    1.0000 </r>
       <r>    0.5089    1.0000 </r>
       <r>    0.6652    1.0000 </r>
       <r>    0.7086    1.0000 </r>
       <r>    0.8744    1.0000 </r>
       <r>    0.9941    1.0000 </r>
       <r>    1.0415    1.0000 </r>
       <r>    1.0735    1.0000 </r>
       <r>    1.2168    1.0000 </r>
       <r>    1.2368    1.0000 </r>
       <r>    1.3293    1.0000 </r>
       <r>    1.3939    1.0000 </r>
       <r>    1.5641    1.0000 </r>
       <r>    1.6021    1.0000 </r>
       <r>    1.6493    1.0000 </r>
       <r>    1.6987    1.0000 </r>
       <r>    1.8468    1.0000 </r>
       <r>    1.8781    1.0000 </r>
       <r>    1.9499    1.0000 </r>
       <r>    2.0124    1.0000 </r>
       <r>    2.1202    1.0000 </r>
       <r>    2.1793    1.0000 </r>
       <r>    2.2008    1.0000 </r>
       <r>    2.2403    1.0000 </r>
       <r>    2.2812    1.0000 </r>
       <r>    2.3354    1.0000 </r>
       <r>    2.4171    1.0000 </r>
       <r>    2.4689    1.0000 </r>
       <r>    2.4905    1.0000 </r>
       <r>    2.5277    1.0000 </r>
       <r>    2.6206    1.0000 </r>
       <r>    2.6434    1.0000 </r>
       <r>    2.6986    1.0000 </r>
       <r>    2.7432    1.0000 </r>
       <r>    2.7888    1.0000 </r>
       <r>    2.8273    1.0000 </r>
       <r>    2.9163    1.0000 </r>
       <r>    2.9650    1.0000 </r>
       <r>    3.1548    1.0000 </r>
       <r>    3.2696    1.0000 </r>
       <r>    3.8335    1.0000 </r>
       <r>    4.0400    1.0000 </r>
       <r>    4.6615    1.0000 </r>
       <r>    4.7660    1.0000 </r>
       <r>    5.1075    1.0000 </r>
       <r>    5.1856    1.0000 </r>
       <r>    5.4637    1.0000 </r>
       <r>    5.6063    1.0000 </r>
       <r>    5.9462    1.0000 </r>
       <r>    6.0600    1.0000 </r>
       <r>    8.1998   -0.0000 </r>
       <r>    8.5706   -0.0000 </r>
       <r>    8.7170   -0.0000 </r>
       <r>    9.0816   -0.0000 </r>
       <r>   10.2292    0.0000 </r>
       <r>   10.3388    0.0000 </r>
       <r>   10.8287    0.0000 </r>
       <r>   10.9413    0.0000 </r>
       <r>   11.3126    0.0000 </r>
       <r>   11.4803    0.0000 </r>
       <r>   11.8269    0.0000 </r>
       <r>   12.1700    0.0000 </r>
      </set>
      <set comment="kpoint 71">
       <r>   -6.5430    1.0000 </r>
       <r>   -6.4519    1.0000 </r>
       <r>   -6.4101    1.0000 </r>
       <r>   -6.3580    1.0000 </r>
       <r>    0.2802    1.0000 </r>
       <r>    0.3434    1.0000 </r>
       <r>    0.5262    1.0000 </r>
       <r>    0.6120    1.0000 </r>
       <r>    0.7115    1.0000 </r>
       <r>    0.7386    1.0000 </r>
       <r>    0.8983    1.0000 </r>
       <r>    0.9910    1.0000 </r>
       <r>    1.0274    1.0000 </r>
       <r>    1.0608    1.0000 </r>
       <r>    1.2504    1.0000 </r>
       <r>    1.2897    1.0000 </r>
       <r>    1.3497    1.0000 </r>
       <r>    1.4080    1.0000 </r>
       <r>    1.5140    1.0000 </r>
       <r>    1.5357    1.0000 </r>
       <r>    1.6722    1.0000 </r>
       <r>    1.6952    1.0000 </r>
       <r>    1.8302    1.0000 </r>
       <r>    1.8756    1.0000 </r>
       <r>    1.9296    1.0000 </r>
       <r>    2.0054    1.0000 </r>
       <r>    2.0620    1.0000 </r>
       <r>    2.1565    1.0000 </r>
       <r>    2.1905    1.0000 </r>
       <r>    2.2260    1.0000 </r>
       <r>    2.2827    1.0000 </r>
       <r>    2.3135    1.0000 </r>
       <r>    2.4184    1.0000 </r>
       <r>    2.4736    1.0000 </r>
       <r>    2.4984    1.0000 </r>
       <r>    2.5199    1.0000 </r>
       <r>    2.6023    1.0000 </r>
       <r>    2.6300    1.0000 </r>
       <r>    2.6986    1.0000 </r>
       <r>    2.7277    1.0000 </r>
       <r>    2.7447    1.0000 </r>
       <r>    2.7953    1.0000 </r>
       <r>    2.9031    1.0000 </r>
       <r>    2.9728    1.0000 </r>
       <r>    3.3625    1.0000 </r>
       <r>    3.4576    1.0000 </r>
       <r>    3.7504    1.0000 </r>
       <r>    3.9050    1.0000 </r>
       <r>    4.4445    1.0000 </r>
       <r>    4.5926    1.0000 </r>
       <r>    4.7857    1.0000 </r>
       <r>    4.9082    1.0000 </r>
       <r>    5.4544    1.0000 </r>
       <r>    5.6050    1.0000 </r>
       <r>    5.8361    1.0000 </r>
       <r>    5.9875    1.0000 </r>
       <r>    8.3832   -0.0000 </r>
       <r>    8.8970   -0.0000 </r>
       <r>    9.0921   -0.0000 </r>
       <r>    9.3806    0.0000 </r>
       <r>    9.6494    0.0000 </r>
       <r>    9.7993    0.0000 </r>
       <r>   10.7535    0.0000 </r>
       <r>   10.8132    0.0000 </r>
       <r>   11.3850    0.0000 </r>
       <r>   11.6253    0.0000 </r>
       <r>   12.0384    0.0000 </r>
       <r>   12.2724    0.0000 </r>
      </set>
      <set comment="kpoint 72">
       <r>   -6.4708    1.0000 </r>
       <r>   -6.4046    1.0000 </r>
       <r>   -6.3888    1.0000 </r>
       <r>   -6.3416    1.0000 </r>
       <r>    0.2575    1.0000 </r>
       <r>    0.2914    1.0000 </r>
       <r>    0.5863    1.0000 </r>
       <r>    0.6756    1.0000 </r>
       <r>    0.7355    1.0000 </r>
       <r>    0.8123    1.0000 </r>
       <r>    0.9332    1.0000 </r>
       <r>    1.0041    1.0000 </r>
       <r>    1.0241    1.0000 </r>
       <r>    1.0474    1.0000 </r>
       <r>    1.2686    1.0000 </r>
       <r>    1.3345    1.0000 </r>
       <r>    1.4020    1.0000 </r>
       <r>    1.4681    1.0000 </r>
       <r>    1.4893    1.0000 </r>
       <r>    1.5300    1.0000 </r>
       <r>    1.7015    1.0000 </r>
       <r>    1.7138    1.0000 </r>
       <r>    1.8271    1.0000 </r>
       <r>    1.8823    1.0000 </r>
       <r>    1.9122    1.0000 </r>
       <r>    1.9781    1.0000 </r>
       <r>    2.0285    1.0000 </r>
       <r>    2.1139    1.0000 </r>
       <r>    2.1819    1.0000 </r>
       <r>    2.2249    1.0000 </r>
       <r>    2.2554    1.0000 </r>
       <r>    2.2956    1.0000 </r>
       <r>    2.3944    1.0000 </r>
       <r>    2.4410    1.0000 </r>
       <r>    2.4919    1.0000 </r>
       <r>    2.5088    1.0000 </r>
       <r>    2.5854    1.0000 </r>
       <r>    2.6113    1.0000 </r>
       <r>    2.6769    1.0000 </r>
       <r>    2.7124    1.0000 </r>
       <r>    2.7317    1.0000 </r>
       <r>    2.7813    1.0000 </r>
       <r>    2.9068    1.0000 </r>
       <r>    2.9860    1.0000 </r>
       <r>    3.3983    1.0000 </r>
       <r>    3.5168    1.0000 </r>
       <r>    3.6506    1.0000 </r>
       <r>    3.7900    1.0000 </r>
       <r>    4.3174    1.0000 </r>
       <r>    4.3689    1.0000 </r>
       <r>    4.7265    1.0000 </r>
       <r>    4.8863    1.0000 </r>
       <r>    5.3367    1.0000 </r>
       <r>    5.5392    1.0000 </r>
       <r>    5.7606    1.0000 </r>
       <r>    5.9766    1.0000 </r>
       <r>    8.2838   -0.0000 </r>
       <r>    8.7458   -0.0000 </r>
       <r>    8.9015   -0.0000 </r>
       <r>    9.1306   -0.0000 </r>
       <r>    9.7715    0.0000 </r>
       <r>    9.9384    0.0000 </r>
       <r>   10.8779    0.0000 </r>
       <r>   11.0271    0.0000 </r>
       <r>   11.5083    0.0000 </r>
       <r>   11.7816    0.0000 </r>
       <r>   12.0079    0.0000 </r>
       <r>   12.3150    0.0000 </r>
      </set>
      <set comment="kpoint 73">
       <r>   -6.4138    1.0000 </r>
       <r>   -6.3751    1.0000 </r>
       <r>   -6.3627    1.0000 </r>
       <r>   -6.3208    1.0000 </r>
       <r>    0.2248    1.0000 </r>
       <r>    0.2479    1.0000 </r>
       <r>    0.6036    1.0000 </r>
       <r>    0.6930    1.0000 </r>
       <r>    0.7380    1.0000 </r>
       <r>    0.7998    1.0000 </r>
       <r>    0.9814    1.0000 </r>
       <r>    1.0282    1.0000 </r>
       <r>    1.0634    1.0000 </r>
       <r>    1.1170    1.0000 </r>
       <r>    1.2950    1.0000 </r>
       <r>    1.3485    1.0000 </r>
       <r>    1.4566    1.0000 </r>
       <r>    1.5159    1.0000 </r>
       <r>    1.5533    1.0000 </r>
       <r>    1.5772    1.0000 </r>
       <r>    1.7250    1.0000 </r>
       <r>    1.7364    1.0000 </r>
       <r>    1.8392    1.0000 </r>
       <r>    1.8714    1.0000 </r>
       <r>    1.9105    1.0000 </r>
       <r>    1.9563    1.0000 </r>
       <r>    2.0448    1.0000 </r>
       <r>    2.0801    1.0000 </r>
       <r>    2.1889    1.0000 </r>
       <r>    2.2128    1.0000 </r>
       <r>    2.2397    1.0000 </r>
       <r>    2.2795    1.0000 </r>
       <r>    2.3731    1.0000 </r>
       <r>    2.4113    1.0000 </r>
       <r>    2.4739    1.0000 </r>
       <r>    2.4925    1.0000 </r>
       <r>    2.5298    1.0000 </r>
       <r>    2.5647    1.0000 </r>
       <r>    2.6679    1.0000 </r>
       <r>    2.7039    1.0000 </r>
       <r>    2.7363    1.0000 </r>
       <r>    2.7567    1.0000 </r>
       <r>    2.9207    1.0000 </r>
       <r>    2.9915    1.0000 </r>
       <r>    3.1659    1.0000 </r>
       <r>    3.2675    1.0000 </r>
       <r>    3.6011    1.0000 </r>
       <r>    3.7707    1.0000 </r>
       <r>    4.3670    1.0000 </r>
       <r>    4.5363    1.0000 </r>
       <r>    4.6626    1.0000 </r>
       <r>    4.9381    1.0000 </r>
       <r>    5.1303    1.0000 </r>
       <r>    5.4216    1.0000 </r>
       <r>    5.7650    1.0000 </r>
       <r>    5.9842    1.0000 </r>
       <r>    8.1010   -0.0000 </r>
       <r>    8.4646   -0.0000 </r>
       <r>    8.6971   -0.0000 </r>
       <r>    8.9078   -0.0000 </r>
       <r>   10.0163    0.0000 </r>
       <r>   10.1935    0.0000 </r>
       <r>   11.0024    0.0000 </r>
       <r>   11.1666    0.0000 </r>
       <r>   11.7511    0.0000 </r>
       <r>   11.8486    0.0000 </r>
       <r>   12.0507    0.0000 </r>
       <r>   12.2701    0.0000 </r>
      </set>
      <set comment="kpoint 74">
       <r>   -6.3824    1.0000 </r>
       <r>   -6.3694    1.0000 </r>
       <r>   -6.3398    1.0000 </r>
       <r>   -6.3047    1.0000 </r>
       <r>    0.1906    1.0000 </r>
       <r>    0.2169    1.0000 </r>
       <r>    0.5917    1.0000 </r>
       <r>    0.7016    1.0000 </r>
       <r>    0.7714    1.0000 </r>
       <r>    0.7931    1.0000 </r>
       <r>    1.0003    1.0000 </r>
       <r>    1.0481    1.0000 </r>
       <r>    1.0984    1.0000 </r>
       <r>    1.1468    1.0000 </r>
       <r>    1.3401    1.0000 </r>
       <r>    1.3885    1.0000 </r>
       <r>    1.5007    1.0000 </r>
       <r>    1.5455    1.0000 </r>
       <r>    1.6182    1.0000 </r>
       <r>    1.6343    1.0000 </r>
       <r>    1.7143    1.0000 </r>
       <r>    1.7510    1.0000 </r>
       <r>    1.8073    1.0000 </r>
       <r>    1.8495    1.0000 </r>
       <r>    1.9328    1.0000 </r>
       <r>    1.9532    1.0000 </r>
       <r>    2.0630    1.0000 </r>
       <r>    2.1279    1.0000 </r>
       <r>    2.2015    1.0000 </r>
       <r>    2.2132    1.0000 </r>
       <r>    2.2349    1.0000 </r>
       <r>    2.2862    1.0000 </r>
       <r>    2.3585    1.0000 </r>
       <r>    2.3877    1.0000 </r>
       <r>    2.4523    1.0000 </r>
       <r>    2.4831    1.0000 </r>
       <r>    2.5020    1.0000 </r>
       <r>    2.5211    1.0000 </r>
       <r>    2.6486    1.0000 </r>
       <r>    2.6728    1.0000 </r>
       <r>    2.7260    1.0000 </r>
       <r>    2.7383    1.0000 </r>
       <r>    2.9357    1.0000 </r>
       <r>    2.9752    1.0000 </r>
       <r>    3.0283    1.0000 </r>
       <r>    3.0528    1.0000 </r>
       <r>    3.4971    1.0000 </r>
       <r>    3.6630    1.0000 </r>
       <r>    4.3543    1.0000 </r>
       <r>    4.5118    1.0000 </r>
       <r>    4.7289    1.0000 </r>
       <r>    5.0023    1.0000 </r>
       <r>    5.1946    1.0000 </r>
       <r>    5.4436    1.0000 </r>
       <r>    5.7294    1.0000 </r>
       <r>    5.9846    1.0000 </r>
       <r>    8.0161   -0.0000 </r>
       <r>    8.3244   -0.0000 </r>
       <r>    8.7138   -0.0000 </r>
       <r>    8.8883   -0.0000 </r>
       <r>   10.0174    0.0000 </r>
       <r>   10.4217    0.0000 </r>
       <r>   11.0640    0.0000 </r>
       <r>   11.1717    0.0000 </r>
       <r>   11.6240    0.0000 </r>
       <r>   11.7569    0.0000 </r>
       <r>   11.9843    0.0000 </r>
       <r>   12.1427    0.0000 </r>
      </set>
      <set comment="kpoint 75">
       <r>   -6.3979    1.0000 </r>
       <r>   -6.3748    1.0000 </r>
       <r>   -6.3264    1.0000 </r>
       <r>   -6.2977    1.0000 </r>
       <r>    0.1711    1.0000 </r>
       <r>    0.1971    1.0000 </r>
       <r>    0.6053    1.0000 </r>
       <r>    0.6951    1.0000 </r>
       <r>    0.7983    1.0000 </r>
       <r>    0.8532    1.0000 </r>
       <r>    0.9676    1.0000 </r>
       <r>    1.0598    1.0000 </r>
       <r>    1.1126    1.0000 </r>
       <r>    1.1697    1.0000 </r>
       <r>    1.3401    1.0000 </r>
       <r>    1.4197    1.0000 </r>
       <r>    1.5365    1.0000 </r>
       <r>    1.5475    1.0000 </r>
       <r>    1.6140    1.0000 </r>
       <r>    1.6465    1.0000 </r>
       <r>    1.6989    1.0000 </r>
       <r>    1.7281    1.0000 </r>
       <r>    1.7932    1.0000 </r>
       <r>    1.8429    1.0000 </r>
       <r>    1.9512    1.0000 </r>
       <r>    1.9642    1.0000 </r>
       <r>    2.0755    1.0000 </r>
       <r>    2.1350    1.0000 </r>
       <r>    2.1928    1.0000 </r>
       <r>    2.2195    1.0000 </r>
       <r>    2.2804    1.0000 </r>
       <r>    2.3053    1.0000 </r>
       <r>    2.3546    1.0000 </r>
       <r>    2.3836    1.0000 </r>
       <r>    2.4092    1.0000 </r>
       <r>    2.4373    1.0000 </r>
       <r>    2.5364    1.0000 </r>
       <r>    2.5699    1.0000 </r>
       <r>    2.6177    1.0000 </r>
       <r>    2.6323    1.0000 </r>
       <r>    2.7168    1.0000 </r>
       <r>    2.7402    1.0000 </r>
       <r>    2.8744    1.0000 </r>
       <r>    2.9699    1.0000 </r>
       <r>    3.0033    1.0000 </r>
       <r>    3.0342    1.0000 </r>
       <r>    3.4932    1.0000 </r>
       <r>    3.6607    1.0000 </r>
       <r>    4.0252    1.0000 </r>
       <r>    4.1495    1.0000 </r>
       <r>    5.0080    1.0000 </r>
       <r>    5.2644    1.0000 </r>
       <r>    5.3229    1.0000 </r>
       <r>    5.5168    1.0000 </r>
       <r>    5.7320    1.0000 </r>
       <r>    5.9747    1.0000 </r>
       <r>    8.0559   -0.0000 </r>
       <r>    8.3816   -0.0000 </r>
       <r>    8.9351   -0.0000 </r>
       <r>    9.0355   -0.0000 </r>
       <r>   10.0215    0.0000 </r>
       <r>   10.4966    0.0000 </r>
       <r>   10.8634    0.0000 </r>
       <r>   11.0787    0.0000 </r>
       <r>   11.3227    0.0000 </r>
       <r>   11.4072    0.0000 </r>
       <r>   11.6878    0.0000 </r>
       <r>   11.9783    0.0000 </r>
      </set>
      <set comment="kpoint 76">
       <r>   -6.4526    1.0000 </r>
       <r>   -6.3995    1.0000 </r>
       <r>   -6.3227    1.0000 </r>
       <r>   -6.2978    1.0000 </r>
       <r>    0.1749    1.0000 </r>
       <r>    0.1981    1.0000 </r>
       <r>    0.6114    1.0000 </r>
       <r>    0.6814    1.0000 </r>
       <r>    0.8251    1.0000 </r>
       <r>    0.8739    1.0000 </r>
       <r>    0.9604    1.0000 </r>
       <r>    1.0455    1.0000 </r>
       <r>    1.1132    1.0000 </r>
       <r>    1.1647    1.0000 </r>
       <r>    1.3261    1.0000 </r>
       <r>    1.4126    1.0000 </r>
       <r>    1.5285    1.0000 </r>
       <r>    1.5497    1.0000 </r>
       <r>    1.5845    1.0000 </r>
       <r>    1.6315    1.0000 </r>
       <r>    1.6646    1.0000 </r>
       <r>    1.6919    1.0000 </r>
       <r>    1.7866    1.0000 </r>
       <r>    1.8521    1.0000 </r>
       <r>    1.9176    1.0000 </r>
       <r>    1.9596    1.0000 </r>
       <r>    2.0858    1.0000 </r>
       <r>    2.1211    1.0000 </r>
       <r>    2.2071    1.0000 </r>
       <r>    2.2438    1.0000 </r>
       <r>    2.2961    1.0000 </r>
       <r>    2.3289    1.0000 </r>
       <r>    2.3710    1.0000 </r>
       <r>    2.3839    1.0000 </r>
       <r>    2.4195    1.0000 </r>
       <r>    2.4511    1.0000 </r>
       <r>    2.5158    1.0000 </r>
       <r>    2.5650    1.0000 </r>
       <r>    2.6224    1.0000 </r>
       <r>    2.6509    1.0000 </r>
       <r>    2.7095    1.0000 </r>
       <r>    2.7711    1.0000 </r>
       <r>    2.8342    1.0000 </r>
       <r>    2.9384    1.0000 </r>
       <r>    3.0850    1.0000 </r>
       <r>    3.1145    1.0000 </r>
       <r>    3.6065    1.0000 </r>
       <r>    3.7621    1.0000 </r>
       <r>    3.8086    1.0000 </r>
       <r>    3.9161    1.0000 </r>
       <r>    5.0643    1.0000 </r>
       <r>    5.3240    1.0000 </r>
       <r>    5.4355    1.0000 </r>
       <r>    5.6039    1.0000 </r>
       <r>    5.8503    1.0000 </r>
       <r>    6.0245    1.0000 </r>
       <r>    8.1989   -0.0000 </r>
       <r>    8.5837   -0.0000 </r>
       <r>    9.2109   -0.0000 </r>
       <r>    9.3886    0.0000 </r>
       <r>    9.9999    0.0000 </r>
       <r>   10.3318    0.0000 </r>
       <r>   10.4771    0.0000 </r>
       <r>   10.9274    0.0000 </r>
       <r>   10.9918    0.0000 </r>
       <r>   11.2543    0.0000 </r>
       <r>   11.4777    0.0000 </r>
       <r>   11.8826    0.0000 </r>
      </set>
      <set comment="kpoint 77">
       <r>   -6.5247    1.0000 </r>
       <r>   -6.4453    1.0000 </r>
       <r>   -6.3297    1.0000 </r>
       <r>   -6.3037    1.0000 </r>
       <r>    0.1990    1.0000 </r>
       <r>    0.2287    1.0000 </r>
       <r>    0.5522    1.0000 </r>
       <r>    0.6238    1.0000 </r>
       <r>    0.8129    1.0000 </r>
       <r>    0.8879    1.0000 </r>
       <r>    0.9486    1.0000 </r>
       <r>    1.0403    1.0000 </r>
       <r>    1.0917    1.0000 </r>
       <r>    1.1361    1.0000 </r>
       <r>    1.3176    1.0000 </r>
       <r>    1.3671    1.0000 </r>
       <r>    1.4902    1.0000 </r>
       <r>    1.5244    1.0000 </r>
       <r>    1.5684    1.0000 </r>
       <r>    1.6121    1.0000 </r>
       <r>    1.6493    1.0000 </r>
       <r>    1.6804    1.0000 </r>
       <r>    1.7939    1.0000 </r>
       <r>    1.8765    1.0000 </r>
       <r>    1.9205    1.0000 </r>
       <r>    1.9388    1.0000 </r>
       <r>    2.0703    1.0000 </r>
       <r>    2.0838    1.0000 </r>
       <r>    2.2270    1.0000 </r>
       <r>    2.2537    1.0000 </r>
       <r>    2.3090    1.0000 </r>
       <r>    2.3398    1.0000 </r>
       <r>    2.3999    1.0000 </r>
       <r>    2.4108    1.0000 </r>
       <r>    2.4531    1.0000 </r>
       <r>    2.4845    1.0000 </r>
       <r>    2.5195    1.0000 </r>
       <r>    2.5604    1.0000 </r>
       <r>    2.6392    1.0000 </r>
       <r>    2.6764    1.0000 </r>
       <r>    2.7023    1.0000 </r>
       <r>    2.7502    1.0000 </r>
       <r>    2.8540    1.0000 </r>
       <r>    2.9252    1.0000 </r>
       <r>    3.1458    1.0000 </r>
       <r>    3.1664    1.0000 </r>
       <r>    3.6955    1.0000 </r>
       <r>    3.7458    1.0000 </r>
       <r>    3.9570    1.0000 </r>
       <r>    4.1499    1.0000 </r>
       <r>    4.9666    1.0000 </r>
       <r>    5.2894    1.0000 </r>
       <r>    5.4742    1.0000 </r>
       <r>    5.6247    1.0000 </r>
       <r>    5.9602    1.0000 </r>
       <r>    6.1426    1.0000 </r>
       <r>    8.3659   -0.0000 </r>
       <r>    8.8073   -0.0000 </r>
       <r>    9.3227    0.0000 </r>
       <r>    9.5946    0.0000 </r>
       <r>    9.8813    0.0000 </r>
       <r>   10.1677    0.0000 </r>
       <r>   10.3978    0.0000 </r>
       <r>   10.5992    0.0000 </r>
       <r>   10.8632    0.0000 </r>
       <r>   11.4030    0.0000 </r>
       <r>   11.6581    0.0000 </r>
       <r>   11.9960    0.0000 </r>
      </set>
      <set comment="kpoint 78">
       <r>   -6.5984    1.0000 </r>
       <r>   -6.4978    1.0000 </r>
       <r>   -6.3461    1.0000 </r>
       <r>   -6.3149    1.0000 </r>
       <r>    0.2297    1.0000 </r>
       <r>    0.2797    1.0000 </r>
       <r>    0.4616    1.0000 </r>
       <r>    0.5155    1.0000 </r>
       <r>    0.7692    1.0000 </r>
       <r>    0.8784    1.0000 </r>
       <r>    0.9435    1.0000 </r>
       <r>    1.0271    1.0000 </r>
       <r>    1.0755    1.0000 </r>
       <r>    1.1165    1.0000 </r>
       <r>    1.2417    1.0000 </r>
       <r>    1.2859    1.0000 </r>
       <r>    1.4491    1.0000 </r>
       <r>    1.5201    1.0000 </r>
       <r>    1.5524    1.0000 </r>
       <r>    1.5725    1.0000 </r>
       <r>    1.6874    1.0000 </r>
       <r>    1.7322    1.0000 </r>
       <r>    1.7971    1.0000 </r>
       <r>    1.8604    1.0000 </r>
       <r>    1.9716    1.0000 </r>
       <r>    1.9876    1.0000 </r>
       <r>    2.0370    1.0000 </r>
       <r>    2.0901    1.0000 </r>
       <r>    2.2143    1.0000 </r>
       <r>    2.2610    1.0000 </r>
       <r>    2.2962    1.0000 </r>
       <r>    2.3359    1.0000 </r>
       <r>    2.4092    1.0000 </r>
       <r>    2.4198    1.0000 </r>
       <r>    2.4818    1.0000 </r>
       <r>    2.4992    1.0000 </r>
       <r>    2.5677    1.0000 </r>
       <r>    2.5881    1.0000 </r>
       <r>    2.6247    1.0000 </r>
       <r>    2.6704    1.0000 </r>
       <r>    2.7442    1.0000 </r>
       <r>    2.8068    1.0000 </r>
       <r>    2.8833    1.0000 </r>
       <r>    2.9256    1.0000 </r>
       <r>    3.1270    1.0000 </r>
       <r>    3.1296    1.0000 </r>
       <r>    3.8086    1.0000 </r>
       <r>    3.9237    1.0000 </r>
       <r>    4.2985    1.0000 </r>
       <r>    4.4844    1.0000 </r>
       <r>    4.9693    1.0000 </r>
       <r>    5.2239    1.0000 </r>
       <r>    5.4524    1.0000 </r>
       <r>    5.5859    1.0000 </r>
       <r>    6.0534    1.0000 </r>
       <r>    6.1977    1.0000 </r>
       <r>    8.3516   -0.0000 </r>
       <r>    8.7615   -0.0000 </r>
       <r>    8.9933   -0.0000 </r>
       <r>    9.2633   -0.0000 </r>
       <r>   10.0710    0.0000 </r>
       <r>   10.3242    0.0000 </r>
       <r>   10.5447    0.0000 </r>
       <r>   10.7049    0.0000 </r>
       <r>   11.2304    0.0000 </r>
       <r>   11.6733    0.0000 </r>
       <r>   11.8910    0.0000 </r>
       <r>   12.1421    0.0000 </r>
      </set>
      <set comment="kpoint 79">
       <r>   -6.6585    1.0000 </r>
       <r>   -6.5426    1.0000 </r>
       <r>   -6.3683    1.0000 </r>
       <r>   -6.3300    1.0000 </r>
       <r>    0.2385    1.0000 </r>
       <r>    0.2897    1.0000 </r>
       <r>    0.3997    1.0000 </r>
       <r>    0.4622    1.0000 </r>
       <r>    0.7459    1.0000 </r>
       <r>    0.8351    1.0000 </r>
       <r>    0.9219    1.0000 </r>
       <r>    0.9984    1.0000 </r>
       <r>    1.0418    1.0000 </r>
       <r>    1.0663    1.0000 </r>
       <r>    1.1936    1.0000 </r>
       <r>    1.2380    1.0000 </r>
       <r>    1.4212    1.0000 </r>
       <r>    1.4823    1.0000 </r>
       <r>    1.5496    1.0000 </r>
       <r>    1.5681    1.0000 </r>
       <r>    1.7067    1.0000 </r>
       <r>    1.7374    1.0000 </r>
       <r>    1.8317    1.0000 </r>
       <r>    1.8508    1.0000 </r>
       <r>    1.9848    1.0000 </r>
       <r>    2.0399    1.0000 </r>
       <r>    2.0681    1.0000 </r>
       <r>    2.1360    1.0000 </r>
       <r>    2.2174    1.0000 </r>
       <r>    2.2704    1.0000 </r>
       <r>    2.2799    1.0000 </r>
       <r>    2.3340    1.0000 </r>
       <r>    2.3969    1.0000 </r>
       <r>    2.4321    1.0000 </r>
       <r>    2.5056    1.0000 </r>
       <r>    2.5240    1.0000 </r>
       <r>    2.5756    1.0000 </r>
       <r>    2.6114    1.0000 </r>
       <r>    2.6432    1.0000 </r>
       <r>    2.6733    1.0000 </r>
       <r>    2.7964    1.0000 </r>
       <r>    2.8682    1.0000 </r>
       <r>    2.9134    1.0000 </r>
       <r>    2.9375    1.0000 </r>
       <r>    3.0797    1.0000 </r>
       <r>    3.1002    1.0000 </r>
       <r>    3.8424    1.0000 </r>
       <r>    4.1253    1.0000 </r>
       <r>    4.5821    1.0000 </r>
       <r>    4.7850    1.0000 </r>
       <r>    5.1854    1.0000 </r>
       <r>    5.3235    1.0000 </r>
       <r>    5.4828    1.0000 </r>
       <r>    5.5403    1.0000 </r>
       <r>    6.1022    1.0000 </r>
       <r>    6.1943    1.0000 </r>
       <r>    8.0549   -0.0000 </r>
       <r>    8.3716   -0.0000 </r>
       <r>    8.5651   -0.0000 </r>
       <r>    8.8727   -0.0000 </r>
       <r>   10.3802    0.0000 </r>
       <r>   10.6063    0.0000 </r>
       <r>   10.9289    0.0000 </r>
       <r>   11.0321    0.0000 </r>
       <r>   11.5770    0.0000 </r>
       <r>   11.9030    0.0000 </r>
       <r>   12.0564    0.0000 </r>
       <r>   12.2358    0.0000 </r>
      </set>
      <set comment="kpoint 80">
       <r>   -6.6935    1.0000 </r>
       <r>   -6.5689    1.0000 </r>
       <r>   -6.3914    1.0000 </r>
       <r>   -6.3459    1.0000 </r>
       <r>    0.2124    1.0000 </r>
       <r>    0.2486    1.0000 </r>
       <r>    0.3957    1.0000 </r>
       <r>    0.5016    1.0000 </r>
       <r>    0.7285    1.0000 </r>
       <r>    0.7901    1.0000 </r>
       <r>    0.8600    1.0000 </r>
       <r>    0.9482    1.0000 </r>
       <r>    1.0286    1.0000 </r>
       <r>    1.0464    1.0000 </r>
       <r>    1.1828    1.0000 </r>
       <r>    1.2259    1.0000 </r>
       <r>    1.4118    1.0000 </r>
       <r>    1.4430    1.0000 </r>
       <r>    1.5337    1.0000 </r>
       <r>    1.5483    1.0000 </r>
       <r>    1.6926    1.0000 </r>
       <r>    1.7465    1.0000 </r>
       <r>    1.8574    1.0000 </r>
       <r>    1.8803    1.0000 </r>
       <r>    2.0063    1.0000 </r>
       <r>    2.0564    1.0000 </r>
       <r>    2.1156    1.0000 </r>
       <r>    2.1544    1.0000 </r>
       <r>    2.2412    1.0000 </r>
       <r>    2.2577    1.0000 </r>
       <r>    2.2897    1.0000 </r>
       <r>    2.3292    1.0000 </r>
       <r>    2.3910    1.0000 </r>
       <r>    2.4544    1.0000 </r>
       <r>    2.5214    1.0000 </r>
       <r>    2.5374    1.0000 </r>
       <r>    2.5858    1.0000 </r>
       <r>    2.6277    1.0000 </r>
       <r>    2.6716    1.0000 </r>
       <r>    2.6999    1.0000 </r>
       <r>    2.8208    1.0000 </r>
       <r>    2.8872    1.0000 </r>
       <r>    2.9243    1.0000 </r>
       <r>    2.9722    1.0000 </r>
       <r>    3.0529    1.0000 </r>
       <r>    3.0987    1.0000 </r>
       <r>    3.7706    1.0000 </r>
       <r>    4.1154    1.0000 </r>
       <r>    4.8326    1.0000 </r>
       <r>    5.0893    1.0000 </r>
       <r>    5.2996    1.0000 </r>
       <r>    5.3600    1.0000 </r>
       <r>    5.6599    1.0000 </r>
       <r>    5.8085    1.0000 </r>
       <r>    6.1009    1.0000 </r>
       <r>    6.2161    1.0000 </r>
       <r>    7.7270   -0.0000 </r>
       <r>    7.9992   -0.0000 </r>
       <r>    8.1418   -0.0000 </r>
       <r>    8.4684   -0.0000 </r>
       <r>   10.7366    0.0000 </r>
       <r>   10.9221    0.0000 </r>
       <r>   11.0868    0.0000 </r>
       <r>   11.1741    0.0000 </r>
       <r>   11.7534    0.0000 </r>
       <r>   11.9974    0.0000 </r>
       <r>   12.1845    0.0000 </r>
       <r>   12.2949    0.0000 </r>
      </set>
      <set comment="kpoint 81">
       <r>   -6.8364    1.0000 </r>
       <r>   -6.6055    1.0000 </r>
       <r>   -6.3200    1.0000 </r>
       <r>   -6.2719    1.0000 </r>
       <r>    0.1251    1.0000 </r>
       <r>    0.3291    1.0000 </r>
       <r>    0.4921    1.0000 </r>
       <r>    0.5338    1.0000 </r>
       <r>    0.6960    1.0000 </r>
       <r>    0.7042    1.0000 </r>
       <r>    0.9038    1.0000 </r>
       <r>    1.0290    1.0000 </r>
       <r>    1.1536    1.0000 </r>
       <r>    1.2329    1.0000 </r>
       <r>    1.2505    1.0000 </r>
       <r>    1.3939    1.0000 </r>
       <r>    1.4281    1.0000 </r>
       <r>    1.4677    1.0000 </r>
       <r>    1.5351    1.0000 </r>
       <r>    1.5440    1.0000 </r>
       <r>    1.6579    1.0000 </r>
       <r>    1.7249    1.0000 </r>
       <r>    1.8049    1.0000 </r>
       <r>    1.8679    1.0000 </r>
       <r>    1.9342    1.0000 </r>
       <r>    1.9672    1.0000 </r>
       <r>    2.0313    1.0000 </r>
       <r>    2.0677    1.0000 </r>
       <r>    2.1501    1.0000 </r>
       <r>    2.2703    1.0000 </r>
       <r>    2.2915    1.0000 </r>
       <r>    2.3522    1.0000 </r>
       <r>    2.3828    1.0000 </r>
       <r>    2.4046    1.0000 </r>
       <r>    2.4634    1.0000 </r>
       <r>    2.5466    1.0000 </r>
       <r>    2.6045    1.0000 </r>
       <r>    2.6599    1.0000 </r>
       <r>    2.7125    1.0000 </r>
       <r>    2.7676    1.0000 </r>
       <r>    2.8451    1.0000 </r>
       <r>    2.9489    1.0000 </r>
       <r>    3.0120    1.0000 </r>
       <r>    3.0640    1.0000 </r>
       <r>    3.1052    1.0000 </r>
       <r>    3.2800    1.0000 </r>
       <r>    3.4270    1.0000 </r>
       <r>    3.9927    1.0000 </r>
       <r>    4.0497    1.0000 </r>
       <r>    4.8345    1.0000 </r>
       <r>    4.8808    1.0000 </r>
       <r>    5.3503    1.0000 </r>
       <r>    5.5735    1.0000 </r>
       <r>    6.0175    1.0000 </r>
       <r>    6.2250    1.0000 </r>
       <r>    6.4469    1.0261 </r>
       <r>    7.3122   -0.0000 </r>
       <r>    8.3154   -0.0000 </r>
       <r>    8.6407   -0.0000 </r>
       <r>    9.6074    0.0000 </r>
       <r>   10.2093    0.0000 </r>
       <r>   10.9589    0.0000 </r>
       <r>   11.0452    0.0000 </r>
       <r>   11.4709    0.0000 </r>
       <r>   11.7202    0.0000 </r>
       <r>   11.7667    0.0000 </r>
       <r>   12.4086    0.0000 </r>
       <r>   12.5313    0.0000 </r>
      </set>
      <set comment="kpoint 82">
       <r>   -6.7916    1.0000 </r>
       <r>   -6.6271    1.0000 </r>
       <r>   -6.3038    1.0000 </r>
       <r>   -6.2791    1.0000 </r>
       <r>    0.1441    1.0000 </r>
       <r>    0.3293    1.0000 </r>
       <r>    0.4616    1.0000 </r>
       <r>    0.5683    1.0000 </r>
       <r>    0.7063    1.0000 </r>
       <r>    0.7612    1.0000 </r>
       <r>    0.9296    1.0000 </r>
       <r>    1.0282    1.0000 </r>
       <r>    1.1708    1.0000 </r>
       <r>    1.2062    1.0000 </r>
       <r>    1.2803    1.0000 </r>
       <r>    1.3506    1.0000 </r>
       <r>    1.4209    1.0000 </r>
       <r>    1.4669    1.0000 </r>
       <r>    1.5338    1.0000 </r>
       <r>    1.5544    1.0000 </r>
       <r>    1.6427    1.0000 </r>
       <r>    1.6586    1.0000 </r>
       <r>    1.7781    1.0000 </r>
       <r>    1.8536    1.0000 </r>
       <r>    1.9653    1.0000 </r>
       <r>    1.9693    1.0000 </r>
       <r>    2.0305    1.0000 </r>
       <r>    2.1347    1.0000 </r>
       <r>    2.1626    1.0000 </r>
       <r>    2.2003    1.0000 </r>
       <r>    2.3019    1.0000 </r>
       <r>    2.3196    1.0000 </r>
       <r>    2.3511    1.0000 </r>
       <r>    2.4455    1.0000 </r>
       <r>    2.4977    1.0000 </r>
       <r>    2.5647    1.0000 </r>
       <r>    2.5903    1.0000 </r>
       <r>    2.6496    1.0000 </r>
       <r>    2.7456    1.0000 </r>
       <r>    2.7730    1.0000 </r>
       <r>    2.8407    1.0000 </r>
       <r>    2.9211    1.0000 </r>
       <r>    2.9573    1.0000 </r>
       <r>    3.0398    1.0000 </r>
       <r>    3.2399    1.0000 </r>
       <r>    3.2905    1.0000 </r>
       <r>    3.4222    1.0000 </r>
       <r>    3.9286    1.0000 </r>
       <r>    4.0564    1.0000 </r>
       <r>    4.7081    1.0000 </r>
       <r>    4.8525    1.0000 </r>
       <r>    5.2065    1.0000 </r>
       <r>    5.6844    1.0000 </r>
       <r>    5.9402    1.0000 </r>
       <r>    6.0961    1.0000 </r>
       <r>    6.3047    1.0016 </r>
       <r>    7.6164   -0.0000 </r>
       <r>    8.2561   -0.0000 </r>
       <r>    9.1479   -0.0000 </r>
       <r>    9.7279    0.0000 </r>
       <r>   10.2785    0.0000 </r>
       <r>   10.5791    0.0000 </r>
       <r>   11.0086    0.0000 </r>
       <r>   11.2721    0.0000 </r>
       <r>   11.4284    0.0000 </r>
       <r>   11.5144    0.0000 </r>
       <r>   11.9153    0.0000 </r>
       <r>   12.6588    0.0000 </r>
      </set>
      <set comment="kpoint 83">
       <r>   -6.7171    1.0000 </r>
       <r>   -6.6220    1.0000 </r>
       <r>   -6.2861    1.0000 </r>
       <r>   -6.2802    1.0000 </r>
       <r>    0.2021    1.0000 </r>
       <r>    0.3727    1.0000 </r>
       <r>    0.4442    1.0000 </r>
       <r>    0.5584    1.0000 </r>
       <r>    0.7397    1.0000 </r>
       <r>    0.7711    1.0000 </r>
       <r>    0.9413    1.0000 </r>
       <r>    1.0528    1.0000 </r>
       <r>    1.1565    1.0000 </r>
       <r>    1.2410    1.0000 </r>
       <r>    1.2912    1.0000 </r>
       <r>    1.3243    1.0000 </r>
       <r>    1.4151    1.0000 </r>
       <r>    1.4520    1.0000 </r>
       <r>    1.5059    1.0000 </r>
       <r>    1.5385    1.0000 </r>
       <r>    1.5847    1.0000 </r>
       <r>    1.6891    1.0000 </r>
       <r>    1.7688    1.0000 </r>
       <r>    1.8764    1.0000 </r>
       <r>    1.9825    1.0000 </r>
       <r>    1.9996    1.0000 </r>
       <r>    2.0241    1.0000 </r>
       <r>    2.1021    1.0000 </r>
       <r>    2.1858    1.0000 </r>
       <r>    2.2288    1.0000 </r>
       <r>    2.2755    1.0000 </r>
       <r>    2.3226    1.0000 </r>
       <r>    2.3476    1.0000 </r>
       <r>    2.4082    1.0000 </r>
       <r>    2.5462    1.0000 </r>
       <r>    2.5620    1.0000 </r>
       <r>    2.6230    1.0000 </r>
       <r>    2.6321    1.0000 </r>
       <r>    2.7396    1.0000 </r>
       <r>    2.7545    1.0000 </r>
       <r>    2.8484    1.0000 </r>
       <r>    2.8695    1.0000 </r>
       <r>    2.9183    1.0000 </r>
       <r>    3.0111    1.0000 </r>
       <r>    3.2500    1.0000 </r>
       <r>    3.2885    1.0000 </r>
       <r>    3.6762    1.0000 </r>
       <r>    3.9258    1.0000 </r>
       <r>    4.0805    1.0000 </r>
       <r>    4.5287    1.0000 </r>
       <r>    4.5670    1.0000 </r>
       <r>    5.0373    1.0000 </r>
       <r>    5.6609    1.0000 </r>
       <r>    5.7282    1.0000 </r>
       <r>    5.7982    1.0000 </r>
       <r>    6.1668    1.0000 </r>
       <r>    8.1268   -0.0000 </r>
       <r>    8.2294   -0.0000 </r>
       <r>    9.6649    0.0000 </r>
       <r>    9.9839    0.0000 </r>
       <r>   10.2363    0.0000 </r>
       <r>   10.4469    0.0000 </r>
       <r>   10.9087    0.0000 </r>
       <r>   11.0476    0.0000 </r>
       <r>   11.0825    0.0000 </r>
       <r>   11.3918    0.0000 </r>
       <r>   11.6100    0.0000 </r>
       <r>   12.7033    0.0000 </r>
      </set>
      <set comment="kpoint 84">
       <r>   -6.6289    1.0000 </r>
       <r>   -6.5870    1.0000 </r>
       <r>   -6.2849    1.0000 </r>
       <r>   -6.2653    1.0000 </r>
       <r>    0.2781    1.0000 </r>
       <r>    0.3928    1.0000 </r>
       <r>    0.4458    1.0000 </r>
       <r>    0.5615    1.0000 </r>
       <r>    0.7166    1.0000 </r>
       <r>    0.8317    1.0000 </r>
       <r>    0.9190    1.0000 </r>
       <r>    1.0895    1.0000 </r>
       <r>    1.1061    1.0000 </r>
       <r>    1.2521    1.0000 </r>
       <r>    1.2665    1.0000 </r>
       <r>    1.3505    1.0000 </r>
       <r>    1.3656    1.0000 </r>
       <r>    1.4749    1.0000 </r>
       <r>    1.5409    1.0000 </r>
       <r>    1.5535    1.0000 </r>
       <r>    1.6268    1.0000 </r>
       <r>    1.7159    1.0000 </r>
       <r>    1.7753    1.0000 </r>
       <r>    1.8751    1.0000 </r>
       <r>    1.9619    1.0000 </r>
       <r>    2.0160    1.0000 </r>
       <r>    2.0316    1.0000 </r>
       <r>    2.0992    1.0000 </r>
       <r>    2.1589    1.0000 </r>
       <r>    2.2408    1.0000 </r>
       <r>    2.2623    1.0000 </r>
       <r>    2.3134    1.0000 </r>
       <r>    2.3550    1.0000 </r>
       <r>    2.4202    1.0000 </r>
       <r>    2.5169    1.0000 </r>
       <r>    2.5834    1.0000 </r>
       <r>    2.6119    1.0000 </r>
       <r>    2.6608    1.0000 </r>
       <r>    2.6986    1.0000 </r>
       <r>    2.7070    1.0000 </r>
       <r>    2.8030    1.0000 </r>
       <r>    2.8531    1.0000 </r>
       <r>    2.9309    1.0000 </r>
       <r>    3.0179    1.0000 </r>
       <r>    3.2074    1.0000 </r>
       <r>    3.3550    1.0000 </r>
       <r>    3.7575    1.0000 </r>
       <r>    4.0219    1.0000 </r>
       <r>    4.1154    1.0000 </r>
       <r>    4.3093    1.0000 </r>
       <r>    4.4370    1.0000 </r>
       <r>    4.7632    1.0000 </r>
       <r>    5.3289    1.0000 </r>
       <r>    5.5981    1.0000 </r>
       <r>    5.6407    1.0000 </r>
       <r>    6.1336    1.0000 </r>
       <r>    8.0430   -0.0000 </r>
       <r>    8.6806   -0.0000 </r>
       <r>    9.1893   -0.0000 </r>
       <r>    9.8617    0.0000 </r>
       <r>   10.1326    0.0000 </r>
       <r>   10.7796    0.0000 </r>
       <r>   10.9633    0.0000 </r>
       <r>   11.0363    0.0000 </r>
       <r>   11.2426    0.0000 </r>
       <r>   11.4840    0.0000 </r>
       <r>   11.7746    0.0000 </r>
       <r>   12.7172    0.0000 </r>
      </set>
      <set comment="kpoint 85">
       <r>   -6.5559    1.0000 </r>
       <r>   -6.5132    1.0000 </r>
       <r>   -6.2888    1.0000 </r>
       <r>   -6.2567    1.0000 </r>
       <r>    0.3187    1.0000 </r>
       <r>    0.3652    1.0000 </r>
       <r>    0.4723    1.0000 </r>
       <r>    0.6360    1.0000 </r>
       <r>    0.6726    1.0000 </r>
       <r>    0.8764    1.0000 </r>
       <r>    0.8993    1.0000 </r>
       <r>    1.0383    1.0000 </r>
       <r>    1.1634    1.0000 </r>
       <r>    1.1828    1.0000 </r>
       <r>    1.2658    1.0000 </r>
       <r>    1.3550    1.0000 </r>
       <r>    1.4322    1.0000 </r>
       <r>    1.4767    1.0000 </r>
       <r>    1.5833    1.0000 </r>
       <r>    1.6177    1.0000 </r>
       <r>    1.6878    1.0000 </r>
       <r>    1.7186    1.0000 </r>
       <r>    1.8007    1.0000 </r>
       <r>    1.8731    1.0000 </r>
       <r>    1.9701    1.0000 </r>
       <r>    2.0056    1.0000 </r>
       <r>    2.0566    1.0000 </r>
       <r>    2.0969    1.0000 </r>
       <r>    2.1174    1.0000 </r>
       <r>    2.2358    1.0000 </r>
       <r>    2.2652    1.0000 </r>
       <r>    2.3398    1.0000 </r>
       <r>    2.3595    1.0000 </r>
       <r>    2.4331    1.0000 </r>
       <r>    2.4821    1.0000 </r>
       <r>    2.5408    1.0000 </r>
       <r>    2.5617    1.0000 </r>
       <r>    2.6414    1.0000 </r>
       <r>    2.6575    1.0000 </r>
       <r>    2.7003    1.0000 </r>
       <r>    2.7647    1.0000 </r>
       <r>    2.8194    1.0000 </r>
       <r>    2.9305    1.0000 </r>
       <r>    3.0082    1.0000 </r>
       <r>    3.1561    1.0000 </r>
       <r>    3.5516    1.0000 </r>
       <r>    3.6935    1.0000 </r>
       <r>    3.8083    1.0000 </r>
       <r>    4.1668    1.0000 </r>
       <r>    4.3622    1.0000 </r>
       <r>    4.4136    1.0000 </r>
       <r>    4.5112    1.0000 </r>
       <r>    5.1402    1.0000 </r>
       <r>    5.4129    1.0000 </r>
       <r>    5.5724    1.0000 </r>
       <r>    6.1216    1.0000 </r>
       <r>    7.8060   -0.0000 </r>
       <r>    8.6984   -0.0000 </r>
       <r>    9.1618   -0.0000 </r>
       <r>    9.4830    0.0000 </r>
       <r>    9.7790    0.0000 </r>
       <r>   10.9536    0.0000 </r>
       <r>   11.0678    0.0000 </r>
       <r>   11.1509    0.0000 </r>
       <r>   11.2495    0.0000 </r>
       <r>   11.6870    0.0000 </r>
       <r>   12.4167    0.0000 </r>
       <r>   12.6989    0.0000 </r>
      </set>
      <set comment="kpoint 86">
       <r>   -6.4904    1.0000 </r>
       <r>   -6.4338    1.0000 </r>
       <r>   -6.3093    1.0000 </r>
       <r>   -6.2535    1.0000 </r>
       <r>    0.3304    1.0000 </r>
       <r>    0.3494    1.0000 </r>
       <r>    0.4923    1.0000 </r>
       <r>    0.6015    1.0000 </r>
       <r>    0.7551    1.0000 </r>
       <r>    0.8465    1.0000 </r>
       <r>    0.8936    1.0000 </r>
       <r>    1.0173    1.0000 </r>
       <r>    1.1740    1.0000 </r>
       <r>    1.2408    1.0000 </r>
       <r>    1.2876    1.0000 </r>
       <r>    1.3660    1.0000 </r>
       <r>    1.4101    1.0000 </r>
       <r>    1.5392    1.0000 </r>
       <r>    1.5941    1.0000 </r>
       <r>    1.6582    1.0000 </r>
       <r>    1.6987    1.0000 </r>
       <r>    1.7278    1.0000 </r>
       <r>    1.8587    1.0000 </r>
       <r>    1.8968    1.0000 </r>
       <r>    1.9706    1.0000 </r>
       <r>    2.0269    1.0000 </r>
       <r>    2.0923    1.0000 </r>
       <r>    2.1004    1.0000 </r>
       <r>    2.1724    1.0000 </r>
       <r>    2.2294    1.0000 </r>
       <r>    2.2479    1.0000 </r>
       <r>    2.3308    1.0000 </r>
       <r>    2.3656    1.0000 </r>
       <r>    2.4132    1.0000 </r>
       <r>    2.4315    1.0000 </r>
       <r>    2.4792    1.0000 </r>
       <r>    2.5233    1.0000 </r>
       <r>    2.6073    1.0000 </r>
       <r>    2.6338    1.0000 </r>
       <r>    2.6858    1.0000 </r>
       <r>    2.7403    1.0000 </r>
       <r>    2.7687    1.0000 </r>
       <r>    2.9227    1.0000 </r>
       <r>    2.9757    1.0000 </r>
       <r>    3.1124    1.0000 </r>
       <r>    3.5155    1.0000 </r>
       <r>    3.6167    1.0000 </r>
       <r>    3.8851    1.0000 </r>
       <r>    4.0048    1.0000 </r>
       <r>    4.1755    1.0000 </r>
       <r>    4.5253    1.0000 </r>
       <r>    4.5801    1.0000 </r>
       <r>    5.0647    1.0000 </r>
       <r>    5.2832    1.0000 </r>
       <r>    5.5661    1.0000 </r>
       <r>    6.0276    1.0000 </r>
       <r>    7.7274   -0.0000 </r>
       <r>    8.5013   -0.0000 </r>
       <r>    9.1204   -0.0000 </r>
       <r>    9.4912    0.0000 </r>
       <r>    9.6107    0.0000 </r>
       <r>   10.6317    0.0000 </r>
       <r>   11.0735    0.0000 </r>
       <r>   11.1713    0.0000 </r>
       <r>   11.3570    0.0000 </r>
       <r>   11.5107    0.0000 </r>
       <r>   12.2021    0.0000 </r>
       <r>   13.0869    0.0000 </r>
      </set>
      <set comment="kpoint 87">
       <r>   -6.4272    1.0000 </r>
       <r>   -6.3912    1.0000 </r>
       <r>   -6.3446    1.0000 </r>
       <r>   -6.2516    1.0000 </r>
       <r>    0.3236    1.0000 </r>
       <r>    0.3975    1.0000 </r>
       <r>    0.4835    1.0000 </r>
       <r>    0.5647    1.0000 </r>
       <r>    0.7731    1.0000 </r>
       <r>    0.8353    1.0000 </r>
       <r>    0.9251    1.0000 </r>
       <r>    0.9889    1.0000 </r>
       <r>    1.1745    1.0000 </r>
       <r>    1.2656    1.0000 </r>
       <r>    1.3217    1.0000 </r>
       <r>    1.3329    1.0000 </r>
       <r>    1.4496    1.0000 </r>
       <r>    1.5497    1.0000 </r>
       <r>    1.6037    1.0000 </r>
       <r>    1.6722    1.0000 </r>
       <r>    1.7364    1.0000 </r>
       <r>    1.7679    1.0000 </r>
       <r>    1.8796    1.0000 </r>
       <r>    1.9409    1.0000 </r>
       <r>    1.9815    1.0000 </r>
       <r>    2.0489    1.0000 </r>
       <r>    2.1026    1.0000 </r>
       <r>    2.1320    1.0000 </r>
       <r>    2.1671    1.0000 </r>
       <r>    2.2513    1.0000 </r>
       <r>    2.2797    1.0000 </r>
       <r>    2.2882    1.0000 </r>
       <r>    2.3129    1.0000 </r>
       <r>    2.3830    1.0000 </r>
       <r>    2.4428    1.0000 </r>
       <r>    2.4688    1.0000 </r>
       <r>    2.5282    1.0000 </r>
       <r>    2.6059    1.0000 </r>
       <r>    2.6487    1.0000 </r>
       <r>    2.6652    1.0000 </r>
       <r>    2.7022    1.0000 </r>
       <r>    2.7459    1.0000 </r>
       <r>    2.8751    1.0000 </r>
       <r>    2.9420    1.0000 </r>
       <r>    3.0820    1.0000 </r>
       <r>    3.2275    1.0000 </r>
       <r>    3.6064    1.0000 </r>
       <r>    3.6449    1.0000 </r>
       <r>    4.1496    1.0000 </r>
       <r>    4.3399    1.0000 </r>
       <r>    4.4593    1.0000 </r>
       <r>    4.7545    1.0000 </r>
       <r>    4.9057    1.0000 </r>
       <r>    5.2984    1.0000 </r>
       <r>    5.5781    1.0000 </r>
       <r>    5.8254    1.0000 </r>
       <r>    7.9564   -0.0000 </r>
       <r>    8.6449   -0.0000 </r>
       <r>    8.8624   -0.0000 </r>
       <r>    9.5618    0.0000 </r>
       <r>    9.7258    0.0000 </r>
       <r>   10.1034    0.0000 </r>
       <r>   10.9458    0.0000 </r>
       <r>   11.0437    0.0000 </r>
       <r>   11.1935    0.0000 </r>
       <r>   11.4837    0.0000 </r>
       <r>   11.8700    0.0000 </r>
       <r>   13.2079    0.0000 </r>
      </set>
      <set comment="kpoint 88">
       <r>   -6.4544    1.0000 </r>
       <r>   -6.3728    1.0000 </r>
       <r>   -6.3350    1.0000 </r>
       <r>   -6.2526    1.0000 </r>
       <r>    0.3371    1.0000 </r>
       <r>    0.4416    1.0000 </r>
       <r>    0.4841    1.0000 </r>
       <r>    0.5607    1.0000 </r>
       <r>    0.7362    1.0000 </r>
       <r>    0.8294    1.0000 </r>
       <r>    0.9649    1.0000 </r>
       <r>    0.9736    1.0000 </r>
       <r>    1.1108    1.0000 </r>
       <r>    1.2535    1.0000 </r>
       <r>    1.3114    1.0000 </r>
       <r>    1.3568    1.0000 </r>
       <r>    1.5003    1.0000 </r>
       <r>    1.5198    1.0000 </r>
       <r>    1.5916    1.0000 </r>
       <r>    1.6938    1.0000 </r>
       <r>    1.7648    1.0000 </r>
       <r>    1.8221    1.0000 </r>
       <r>    1.8857    1.0000 </r>
       <r>    1.9752    1.0000 </r>
       <r>    1.9943    1.0000 </r>
       <r>    2.0222    1.0000 </r>
       <r>    2.0655    1.0000 </r>
       <r>    2.1072    1.0000 </r>
       <r>    2.1967    1.0000 </r>
       <r>    2.2479    1.0000 </r>
       <r>    2.2703    1.0000 </r>
       <r>    2.3060    1.0000 </r>
       <r>    2.3482    1.0000 </r>
       <r>    2.3739    1.0000 </r>
       <r>    2.4616    1.0000 </r>
       <r>    2.4897    1.0000 </r>
       <r>    2.5255    1.0000 </r>
       <r>    2.5720    1.0000 </r>
       <r>    2.6406    1.0000 </r>
       <r>    2.6792    1.0000 </r>
       <r>    2.7386    1.0000 </r>
       <r>    2.7719    1.0000 </r>
       <r>    2.8341    1.0000 </r>
       <r>    2.9129    1.0000 </r>
       <r>    3.0038    1.0000 </r>
       <r>    3.1558    1.0000 </r>
       <r>    3.3946    1.0000 </r>
       <r>    3.6571    1.0000 </r>
       <r>    4.1618    1.0000 </r>
       <r>    4.3211    1.0000 </r>
       <r>    4.6839    1.0000 </r>
       <r>    4.7431    1.0000 </r>
       <r>    4.9323    1.0000 </r>
       <r>    5.3882    1.0000 </r>
       <r>    5.5043    1.0000 </r>
       <r>    5.6775    1.0000 </r>
       <r>    8.4442   -0.0000 </r>
       <r>    8.7054   -0.0000 </r>
       <r>    9.0749   -0.0000 </r>
       <r>    9.3809    0.0000 </r>
       <r>    9.7003    0.0000 </r>
       <r>    9.9669    0.0000 </r>
       <r>   10.5395    0.0000 </r>
       <r>   10.9698    0.0000 </r>
       <r>   11.1220    0.0000 </r>
       <r>   11.3863    0.0000 </r>
       <r>   11.9303    0.0000 </r>
       <r>   13.1984    0.0000 </r>
      </set>
      <set comment="kpoint 89">
       <r>   -6.5514    1.0000 </r>
       <r>   -6.3625    1.0000 </r>
       <r>   -6.3163    1.0000 </r>
       <r>   -6.2564    1.0000 </r>
       <r>    0.3666    1.0000 </r>
       <r>    0.4160    1.0000 </r>
       <r>    0.4889    1.0000 </r>
       <r>    0.6257    1.0000 </r>
       <r>    0.6774    1.0000 </r>
       <r>    0.8275    1.0000 </r>
       <r>    0.9625    1.0000 </r>
       <r>    1.0105    1.0000 </r>
       <r>    1.0435    1.0000 </r>
       <r>    1.2160    1.0000 </r>
       <r>    1.3327    1.0000 </r>
       <r>    1.3545    1.0000 </r>
       <r>    1.4797    1.0000 </r>
       <r>    1.5103    1.0000 </r>
       <r>    1.5985    1.0000 </r>
       <r>    1.6720    1.0000 </r>
       <r>    1.7397    1.0000 </r>
       <r>    1.8173    1.0000 </r>
       <r>    1.8475    1.0000 </r>
       <r>    1.9374    1.0000 </r>
       <r>    2.0130    1.0000 </r>
       <r>    2.0337    1.0000 </r>
       <r>    2.0578    1.0000 </r>
       <r>    2.0796    1.0000 </r>
       <r>    2.1874    1.0000 </r>
       <r>    2.2505    1.0000 </r>
       <r>    2.2639    1.0000 </r>
       <r>    2.3078    1.0000 </r>
       <r>    2.3808    1.0000 </r>
       <r>    2.4065    1.0000 </r>
       <r>    2.4514    1.0000 </r>
       <r>    2.5126    1.0000 </r>
       <r>    2.5260    1.0000 </r>
       <r>    2.6099    1.0000 </r>
       <r>    2.6419    1.0000 </r>
       <r>    2.6584    1.0000 </r>
       <r>    2.7185    1.0000 </r>
       <r>    2.7837    1.0000 </r>
       <r>    2.8939    1.0000 </r>
       <r>    2.9420    1.0000 </r>
       <r>    2.9682    1.0000 </r>
       <r>    3.2967    1.0000 </r>
       <r>    3.3964    1.0000 </r>
       <r>    3.7377    1.0000 </r>
       <r>    3.9970    1.0000 </r>
       <r>    4.3852    1.0000 </r>
       <r>    4.6175    1.0000 </r>
       <r>    4.8167    1.0000 </r>
       <r>    4.8617    1.0000 </r>
       <r>    5.4371    1.0000 </r>
       <r>    5.6597    1.0000 </r>
       <r>    5.7215    1.0000 </r>
       <r>    8.4460   -0.0000 </r>
       <r>    8.8650   -0.0000 </r>
       <r>    9.2347   -0.0000 </r>
       <r>    9.6418    0.0000 </r>
       <r>    9.8785    0.0000 </r>
       <r>    9.9371    0.0000 </r>
       <r>   10.3680    0.0000 </r>
       <r>   10.9147    0.0000 </r>
       <r>   11.2383    0.0000 </r>
       <r>   11.4295    0.0000 </r>
       <r>   11.9858    0.0000 </r>
       <r>   13.0349    0.0000 </r>
      </set>
      <set comment="kpoint 90">
       <r>   -6.6544    1.0000 </r>
       <r>   -6.3938    1.0000 </r>
       <r>   -6.3066    1.0000 </r>
       <r>   -6.2567    1.0000 </r>
       <r>    0.3230    1.0000 </r>
       <r>    0.4352    1.0000 </r>
       <r>    0.4963    1.0000 </r>
       <r>    0.6135    1.0000 </r>
       <r>    0.6689    1.0000 </r>
       <r>    0.8226    1.0000 </r>
       <r>    0.9262    1.0000 </r>
       <r>    1.0408    1.0000 </r>
       <r>    1.0704    1.0000 </r>
       <r>    1.1816    1.0000 </r>
       <r>    1.3141    1.0000 </r>
       <r>    1.3361    1.0000 </r>
       <r>    1.4566    1.0000 </r>
       <r>    1.4941    1.0000 </r>
       <r>    1.6019    1.0000 </r>
       <r>    1.6326    1.0000 </r>
       <r>    1.6722    1.0000 </r>
       <r>    1.7991    1.0000 </r>
       <r>    1.8435    1.0000 </r>
       <r>    1.8750    1.0000 </r>
       <r>    1.9125    1.0000 </r>
       <r>    2.0120    1.0000 </r>
       <r>    2.0331    1.0000 </r>
       <r>    2.0995    1.0000 </r>
       <r>    2.1623    1.0000 </r>
       <r>    2.2242    1.0000 </r>
       <r>    2.2961    1.0000 </r>
       <r>    2.3535    1.0000 </r>
       <r>    2.3949    1.0000 </r>
       <r>    2.4430    1.0000 </r>
       <r>    2.5096    1.0000 </r>
       <r>    2.5450    1.0000 </r>
       <r>    2.5705    1.0000 </r>
       <r>    2.6298    1.0000 </r>
       <r>    2.6582    1.0000 </r>
       <r>    2.6686    1.0000 </r>
       <r>    2.7090    1.0000 </r>
       <r>    2.8078    1.0000 </r>
       <r>    2.8997    1.0000 </r>
       <r>    2.9318    1.0000 </r>
       <r>    3.1073    1.0000 </r>
       <r>    3.3224    1.0000 </r>
       <r>    3.7130    1.0000 </r>
       <r>    3.8140    1.0000 </r>
       <r>    4.0345    1.0000 </r>
       <r>    4.2575    1.0000 </r>
       <r>    4.4505    1.0000 </r>
       <r>    4.8192    1.0000 </r>
       <r>    4.9781    1.0000 </r>
       <r>    5.3934    1.0000 </r>
       <r>    5.7644    1.0000 </r>
       <r>    6.0189    1.0000 </r>
       <r>    8.0266   -0.0000 </r>
       <r>    8.9289   -0.0000 </r>
       <r>    9.4512    0.0000 </r>
       <r>    9.9050    0.0000 </r>
       <r>   10.2002    0.0000 </r>
       <r>   10.2775    0.0000 </r>
       <r>   10.5940    0.0000 </r>
       <r>   10.9122    0.0000 </r>
       <r>   11.3182    0.0000 </r>
       <r>   11.6700    0.0000 </r>
       <r>   11.9689    0.0000 </r>
       <r>   12.7266    0.0000 </r>
      </set>
      <set comment="kpoint 91">
       <r>   -6.7461    1.0000 </r>
       <r>   -6.4455    1.0000 </r>
       <r>   -6.3147    1.0000 </r>
       <r>   -6.2536    1.0000 </r>
       <r>    0.2640    1.0000 </r>
       <r>    0.4122    1.0000 </r>
       <r>    0.5437    1.0000 </r>
       <r>    0.5531    1.0000 </r>
       <r>    0.6467    1.0000 </r>
       <r>    0.8057    1.0000 </r>
       <r>    0.9138    1.0000 </r>
       <r>    1.0359    1.0000 </r>
       <r>    1.1102    1.0000 </r>
       <r>    1.1502    1.0000 </r>
       <r>    1.3194    1.0000 </r>
       <r>    1.3676    1.0000 </r>
       <r>    1.4296    1.0000 </r>
       <r>    1.4421    1.0000 </r>
       <r>    1.5264    1.0000 </r>
       <r>    1.6143    1.0000 </r>
       <r>    1.6620    1.0000 </r>
       <r>    1.7537    1.0000 </r>
       <r>    1.7897    1.0000 </r>
       <r>    1.8568    1.0000 </r>
       <r>    1.9123    1.0000 </r>
       <r>    2.0137    1.0000 </r>
       <r>    2.0611    1.0000 </r>
       <r>    2.1106    1.0000 </r>
       <r>    2.1231    1.0000 </r>
       <r>    2.2043    1.0000 </r>
       <r>    2.3055    1.0000 </r>
       <r>    2.3636    1.0000 </r>
       <r>    2.4247    1.0000 </r>
       <r>    2.4731    1.0000 </r>
       <r>    2.5212    1.0000 </r>
       <r>    2.5593    1.0000 </r>
       <r>    2.6178    1.0000 </r>
       <r>    2.6406    1.0000 </r>
       <r>    2.6657    1.0000 </r>
       <r>    2.6928    1.0000 </r>
       <r>    2.7707    1.0000 </r>
       <r>    2.8655    1.0000 </r>
       <r>    2.8855    1.0000 </r>
       <r>    2.9161    1.0000 </r>
       <r>    3.1851    1.0000 </r>
       <r>    3.4285    1.0000 </r>
       <r>    3.6742    1.0000 </r>
       <r>    3.9677    1.0000 </r>
       <r>    4.2426    1.0000 </r>
       <r>    4.2697    1.0000 </r>
       <r>    4.4328    1.0000 </r>
       <r>    4.8622    1.0000 </r>
       <r>    5.2253    1.0000 </r>
       <r>    5.2774    1.0000 </r>
       <r>    5.8748    1.0000 </r>
       <r>    6.2359    1.0000 </r>
       <r>    7.6307   -0.0000 </r>
       <r>    9.0924   -0.0000 </r>
       <r>    9.4038    0.0000 </r>
       <r>    9.7708    0.0000 </r>
       <r>   10.5594    0.0000 </r>
       <r>   10.7162    0.0000 </r>
       <r>   11.0399    0.0000 </r>
       <r>   11.1329    0.0000 </r>
       <r>   11.3510    0.0000 </r>
       <r>   11.5380    0.0000 </r>
       <r>   12.1688    0.0000 </r>
       <r>   12.6245    0.0000 </r>
      </set>
      <set comment="kpoint 92">
       <r>   -6.8125    1.0000 </r>
       <r>   -6.5055    1.0000 </r>
       <r>   -6.3247    1.0000 </r>
       <r>   -6.2557    1.0000 </r>
       <r>    0.2017    1.0000 </r>
       <r>    0.4214    1.0000 </r>
       <r>    0.4735    1.0000 </r>
       <r>    0.5306    1.0000 </r>
       <r>    0.6517    1.0000 </r>
       <r>    0.7500    1.0000 </r>
       <r>    0.9528    1.0000 </r>
       <r>    0.9844    1.0000 </r>
       <r>    1.1335    1.0000 </r>
       <r>    1.1518    1.0000 </r>
       <r>    1.3475    1.0000 </r>
       <r>    1.3632    1.0000 </r>
       <r>    1.4041    1.0000 </r>
       <r>    1.4620    1.0000 </r>
       <r>    1.5145    1.0000 </r>
       <r>    1.5786    1.0000 </r>
       <r>    1.6434    1.0000 </r>
       <r>    1.7045    1.0000 </r>
       <r>    1.8001    1.0000 </r>
       <r>    1.8556    1.0000 </r>
       <r>    1.9614    1.0000 </r>
       <r>    2.0045    1.0000 </r>
       <r>    2.0704    1.0000 </r>
       <r>    2.0984    1.0000 </r>
       <r>    2.1278    1.0000 </r>
       <r>    2.2230    1.0000 </r>
       <r>    2.2907    1.0000 </r>
       <r>    2.3703    1.0000 </r>
       <r>    2.4128    1.0000 </r>
       <r>    2.4503    1.0000 </r>
       <r>    2.5391    1.0000 </r>
       <r>    2.5607    1.0000 </r>
       <r>    2.6108    1.0000 </r>
       <r>    2.6477    1.0000 </r>
       <r>    2.6752    1.0000 </r>
       <r>    2.7259    1.0000 </r>
       <r>    2.8230    1.0000 </r>
       <r>    2.8658    1.0000 </r>
       <r>    2.8981    1.0000 </r>
       <r>    2.9709    1.0000 </r>
       <r>    3.1515    1.0000 </r>
       <r>    3.4020    1.0000 </r>
       <r>    3.6577    1.0000 </r>
       <r>    4.0927    1.0000 </r>
       <r>    4.1203    1.0000 </r>
       <r>    4.4634    1.0000 </r>
       <r>    4.7815    1.0000 </r>
       <r>    5.0126    1.0000 </r>
       <r>    5.1692    1.0000 </r>
       <r>    5.6278    1.0000 </r>
       <r>    5.9769    1.0000 </r>
       <r>    6.3413    1.0064 </r>
       <r>    7.3621   -0.0000 </r>
       <r>    8.8516   -0.0000 </r>
       <r>    9.2356   -0.0000 </r>
       <r>    9.8087    0.0000 </r>
       <r>   10.6080    0.0000 </r>
       <r>   10.7884    0.0000 </r>
       <r>   10.9794    0.0000 </r>
       <r>   11.5271    0.0000 </r>
       <r>   11.5881    0.0000 </r>
       <r>   11.7124    0.0000 </r>
       <r>   12.2172    0.0000 </r>
       <r>   12.4683    0.0000 </r>
      </set>
      <set comment="kpoint 93">
       <r>   -6.8440    1.0000 </r>
       <r>   -6.5623    1.0000 </r>
       <r>   -6.3275    1.0000 </r>
       <r>   -6.2630    1.0000 </r>
       <r>    0.1480    1.0000 </r>
       <r>    0.3775    1.0000 </r>
       <r>    0.4787    1.0000 </r>
       <r>    0.5319    1.0000 </r>
       <r>    0.6358    1.0000 </r>
       <r>    0.7133    1.0000 </r>
       <r>    0.9292    1.0000 </r>
       <r>    1.0032    1.0000 </r>
       <r>    1.1546    1.0000 </r>
       <r>    1.1879    1.0000 </r>
       <r>    1.2908    1.0000 </r>
       <r>    1.3911    1.0000 </r>
       <r>    1.4216    1.0000 </r>
       <r>    1.4613    1.0000 </r>
       <r>    1.5209    1.0000 </r>
       <r>    1.5584    1.0000 </r>
       <r>    1.6868    1.0000 </r>
       <r>    1.7031    1.0000 </r>
       <r>    1.7995    1.0000 </r>
       <r>    1.8722    1.0000 </r>
       <r>    1.9433    1.0000 </r>
       <r>    1.9813    1.0000 </r>
       <r>    2.0635    1.0000 </r>
       <r>    2.0884    1.0000 </r>
       <r>    2.1353    1.0000 </r>
       <r>    2.2341    1.0000 </r>
       <r>    2.3210    1.0000 </r>
       <r>    2.3616    1.0000 </r>
       <r>    2.3723    1.0000 </r>
       <r>    2.4239    1.0000 </r>
       <r>    2.4849    1.0000 </r>
       <r>    2.5636    1.0000 </r>
       <r>    2.6138    1.0000 </r>
       <r>    2.6481    1.0000 </r>
       <r>    2.6900    1.0000 </r>
       <r>    2.7520    1.0000 </r>
       <r>    2.8514    1.0000 </r>
       <r>    2.9019    1.0000 </r>
       <r>    2.9528    1.0000 </r>
       <r>    3.0356    1.0000 </r>
       <r>    3.0795    1.0000 </r>
       <r>    3.3399    1.0000 </r>
       <r>    3.5277    1.0000 </r>
       <r>    4.0405    1.0000 </r>
       <r>    4.2274    1.0000 </r>
       <r>    4.5328    1.0000 </r>
       <r>    4.9275    1.0000 </r>
       <r>    5.3024    1.0000 </r>
       <r>    5.3613    1.0000 </r>
       <r>    5.9227    1.0000 </r>
       <r>    6.1120    1.0000 </r>
       <r>    6.4105    1.0327 </r>
       <r>    7.2511   -0.0000 </r>
       <r>    8.5591   -0.0000 </r>
       <r>    8.6889   -0.0000 </r>
       <r>   10.0046    0.0000 </r>
       <r>   10.0874    0.0000 </r>
       <r>   10.9638    0.0000 </r>
       <r>   11.0646    0.0000 </r>
       <r>   11.5050    0.0000 </r>
       <r>   11.7575    0.0000 </r>
       <r>   12.1228    0.0000 </r>
       <r>   12.2132    0.0000 </r>
       <r>   12.5251    0.0000 </r>
      </set>
      <set comment="kpoint 94">
       <r>   -6.8121    1.0000 </r>
       <r>   -6.5891    1.0000 </r>
       <r>   -6.3460    1.0000 </r>
       <r>   -6.2891    1.0000 </r>
       <r>    0.1324    1.0000 </r>
       <r>    0.3036    1.0000 </r>
       <r>    0.4752    1.0000 </r>
       <r>    0.5954    1.0000 </r>
       <r>    0.6447    1.0000 </r>
       <r>    0.7173    1.0000 </r>
       <r>    0.8716    1.0000 </r>
       <r>    0.9591    1.0000 </r>
       <r>    1.1314    1.0000 </r>
       <r>    1.2078    1.0000 </r>
       <r>    1.2915    1.0000 </r>
       <r>    1.3767    1.0000 </r>
       <r>    1.4022    1.0000 </r>
       <r>    1.4719    1.0000 </r>
       <r>    1.4967    1.0000 </r>
       <r>    1.5645    1.0000 </r>
       <r>    1.6889    1.0000 </r>
       <r>    1.7680    1.0000 </r>
       <r>    1.7804    1.0000 </r>
       <r>    1.8888    1.0000 </r>
       <r>    1.9309    1.0000 </r>
       <r>    1.9915    1.0000 </r>
       <r>    2.0554    1.0000 </r>
       <r>    2.1196    1.0000 </r>
       <r>    2.1728    1.0000 </r>
       <r>    2.2441    1.0000 </r>
       <r>    2.3020    1.0000 </r>
       <r>    2.3519    1.0000 </r>
       <r>    2.3743    1.0000 </r>
       <r>    2.4241    1.0000 </r>
       <r>    2.4522    1.0000 </r>
       <r>    2.5495    1.0000 </r>
       <r>    2.6026    1.0000 </r>
       <r>    2.6652    1.0000 </r>
       <r>    2.7147    1.0000 </r>
       <r>    2.7605    1.0000 </r>
       <r>    2.8461    1.0000 </r>
       <r>    2.9216    1.0000 </r>
       <r>    2.9671    1.0000 </r>
       <r>    3.0208    1.0000 </r>
       <r>    3.1230    1.0000 </r>
       <r>    3.3145    1.0000 </r>
       <r>    3.4311    1.0000 </r>
       <r>    3.8518    1.0000 </r>
       <r>    4.3658    1.0000 </r>
       <r>    4.7978    1.0000 </r>
       <r>    4.9683    1.0000 </r>
       <r>    5.3888    1.0000 </r>
       <r>    5.5969    1.0000 </r>
       <r>    6.0146    1.0000 </r>
       <r>    6.1957    1.0000 </r>
       <r>    6.4346    1.0340 </r>
       <r>    7.3671   -0.0000 </r>
       <r>    8.1188   -0.0000 </r>
       <r>    8.6423   -0.0000 </r>
       <r>    9.4128    0.0000 </r>
       <r>   10.4499    0.0000 </r>
       <r>   10.9272    0.0000 </r>
       <r>   10.9714    0.0000 </r>
       <r>   11.4694    0.0000 </r>
       <r>   11.5743    0.0000 </r>
       <r>   11.9361    0.0000 </r>
       <r>   12.1618    0.0000 </r>
       <r>   12.7052    0.0000 </r>
      </set>
      <set comment="kpoint 95">
       <r>   -6.7684    1.0000 </r>
       <r>   -6.6101    1.0000 </r>
       <r>   -6.3275    1.0000 </r>
       <r>   -6.2976    1.0000 </r>
       <r>    0.1510    1.0000 </r>
       <r>    0.3040    1.0000 </r>
       <r>    0.4804    1.0000 </r>
       <r>    0.6020    1.0000 </r>
       <r>    0.6834    1.0000 </r>
       <r>    0.7640    1.0000 </r>
       <r>    0.8378    1.0000 </r>
       <r>    0.9806    1.0000 </r>
       <r>    1.1530    1.0000 </r>
       <r>    1.1951    1.0000 </r>
       <r>    1.2997    1.0000 </r>
       <r>    1.3538    1.0000 </r>
       <r>    1.3951    1.0000 </r>
       <r>    1.4581    1.0000 </r>
       <r>    1.4675    1.0000 </r>
       <r>    1.6020    1.0000 </r>
       <r>    1.6503    1.0000 </r>
       <r>    1.7099    1.0000 </r>
       <r>    1.8125    1.0000 </r>
       <r>    1.8641    1.0000 </r>
       <r>    1.9514    1.0000 </r>
       <r>    2.0053    1.0000 </r>
       <r>    2.0323    1.0000 </r>
       <r>    2.1275    1.0000 </r>
       <r>    2.2031    1.0000 </r>
       <r>    2.2315    1.0000 </r>
       <r>    2.2759    1.0000 </r>
       <r>    2.3004    1.0000 </r>
       <r>    2.3712    1.0000 </r>
       <r>    2.4521    1.0000 </r>
       <r>    2.4714    1.0000 </r>
       <r>    2.5491    1.0000 </r>
       <r>    2.6102    1.0000 </r>
       <r>    2.6719    1.0000 </r>
       <r>    2.7230    1.0000 </r>
       <r>    2.7782    1.0000 </r>
       <r>    2.8462    1.0000 </r>
       <r>    2.8994    1.0000 </r>
       <r>    2.9328    1.0000 </r>
       <r>    3.0297    1.0000 </r>
       <r>    3.2392    1.0000 </r>
       <r>    3.2831    1.0000 </r>
       <r>    3.4737    1.0000 </r>
       <r>    3.8568    1.0000 </r>
       <r>    4.2574    1.0000 </r>
       <r>    4.6941    1.0000 </r>
       <r>    4.9164    1.0000 </r>
       <r>    5.2586    1.0000 </r>
       <r>    5.6860    1.0000 </r>
       <r>    5.9656    1.0000 </r>
       <r>    6.0576    1.0000 </r>
       <r>    6.3031    1.0015 </r>
       <r>    7.6345   -0.0000 </r>
       <r>    8.1298   -0.0000 </r>
       <r>    9.1154   -0.0000 </r>
       <r>    9.5624    0.0000 </r>
       <r>   10.3755    0.0000 </r>
       <r>   10.6430    0.0000 </r>
       <r>   10.9472    0.0000 </r>
       <r>   11.1883    0.0000 </r>
       <r>   11.4118    0.0000 </r>
       <r>   11.5262    0.0000 </r>
       <r>   12.0201    0.0000 </r>
       <r>   12.6870    0.0000 </r>
      </set>
      <set comment="kpoint 96">
       <r>   -6.6963    1.0000 </r>
       <r>   -6.6053    1.0000 </r>
       <r>   -6.3046    1.0000 </r>
       <r>   -6.3004    1.0000 </r>
       <r>    0.2027    1.0000 </r>
       <r>    0.3360    1.0000 </r>
       <r>    0.4959    1.0000 </r>
       <r>    0.5694    1.0000 </r>
       <r>    0.7108    1.0000 </r>
       <r>    0.7946    1.0000 </r>
       <r>    0.8716    1.0000 </r>
       <r>    1.0232    1.0000 </r>
       <r>    1.1315    1.0000 </r>
       <r>    1.2061    1.0000 </r>
       <r>    1.2833    1.0000 </r>
       <r>    1.3345    1.0000 </r>
       <r>    1.3658    1.0000 </r>
       <r>    1.4758    1.0000 </r>
       <r>    1.4835    1.0000 </r>
       <r>    1.5606    1.0000 </r>
       <r>    1.6128    1.0000 </r>
       <r>    1.7090    1.0000 </r>
       <r>    1.7729    1.0000 </r>
       <r>    1.9030    1.0000 </r>
       <r>    1.9641    1.0000 </r>
       <r>    2.0058    1.0000 </r>
       <r>    2.0214    1.0000 </r>
       <r>    2.1302    1.0000 </r>
       <r>    2.1468    1.0000 </r>
       <r>    2.2508    1.0000 </r>
       <r>    2.2706    1.0000 </r>
       <r>    2.3180    1.0000 </r>
       <r>    2.3799    1.0000 </r>
       <r>    2.4256    1.0000 </r>
       <r>    2.5014    1.0000 </r>
       <r>    2.5727    1.0000 </r>
       <r>    2.6179    1.0000 </r>
       <r>    2.6545    1.0000 </r>
       <r>    2.7076    1.0000 </r>
       <r>    2.7756    1.0000 </r>
       <r>    2.8338    1.0000 </r>
       <r>    2.8620    1.0000 </r>
       <r>    2.9069    1.0000 </r>
       <r>    3.0189    1.0000 </r>
       <r>    3.2975    1.0000 </r>
       <r>    3.3438    1.0000 </r>
       <r>    3.6576    1.0000 </r>
       <r>    3.9268    1.0000 </r>
       <r>    4.1417    1.0000 </r>
       <r>    4.5503    1.0000 </r>
       <r>    4.6207    1.0000 </r>
       <r>    5.0778    1.0000 </r>
       <r>    5.6485    1.0000 </r>
       <r>    5.6922    1.0000 </r>
       <r>    5.8508    1.0000 </r>
       <r>    6.1503    1.0000 </r>
       <r>    8.1091   -0.0000 </r>
       <r>    8.2254   -0.0000 </r>
       <r>    9.6754    0.0000 </r>
       <r>    9.7756    0.0000 </r>
       <r>   10.0879    0.0000 </r>
       <r>   10.7015    0.0000 </r>
       <r>   10.7450    0.0000 </r>
       <r>   11.0159    0.0000 </r>
       <r>   11.0862    0.0000 </r>
       <r>   11.3869    0.0000 </r>
       <r>   11.8377    0.0000 </r>
       <r>   12.7221    0.0000 </r>
      </set>
      <set comment="kpoint 97">
       <r>   -6.6118    1.0000 </r>
       <r>   -6.5712    1.0000 </r>
       <r>   -6.3013    1.0000 </r>
       <r>   -6.2816    1.0000 </r>
       <r>    0.2681    1.0000 </r>
       <r>    0.3608    1.0000 </r>
       <r>    0.4850    1.0000 </r>
       <r>    0.5783    1.0000 </r>
       <r>    0.7199    1.0000 </r>
       <r>    0.8312    1.0000 </r>
       <r>    0.9064    1.0000 </r>
       <r>    1.0381    1.0000 </r>
       <r>    1.1286    1.0000 </r>
       <r>    1.1706    1.0000 </r>
       <r>    1.2471    1.0000 </r>
       <r>    1.3347    1.0000 </r>
       <r>    1.3782    1.0000 </r>
       <r>    1.4907    1.0000 </r>
       <r>    1.5330    1.0000 </r>
       <r>    1.5702    1.0000 </r>
       <r>    1.6249    1.0000 </r>
       <r>    1.7269    1.0000 </r>
       <r>    1.7533    1.0000 </r>
       <r>    1.8868    1.0000 </r>
       <r>    1.9700    1.0000 </r>
       <r>    1.9905    1.0000 </r>
       <r>    2.0208    1.0000 </r>
       <r>    2.1153    1.0000 </r>
       <r>    2.1485    1.0000 </r>
       <r>    2.2427    1.0000 </r>
       <r>    2.2777    1.0000 </r>
       <r>    2.3173    1.0000 </r>
       <r>    2.3713    1.0000 </r>
       <r>    2.4407    1.0000 </r>
       <r>    2.5130    1.0000 </r>
       <r>    2.5370    1.0000 </r>
       <r>    2.6154    1.0000 </r>
       <r>    2.6333    1.0000 </r>
       <r>    2.6871    1.0000 </r>
       <r>    2.7562    1.0000 </r>
       <r>    2.7774    1.0000 </r>
       <r>    2.8474    1.0000 </r>
       <r>    2.9088    1.0000 </r>
       <r>    3.0252    1.0000 </r>
       <r>    3.3137    1.0000 </r>
       <r>    3.4176    1.0000 </r>
       <r>    3.7803    1.0000 </r>
       <r>    4.0081    1.0000 </r>
       <r>    4.1064    1.0000 </r>
       <r>    4.3514    1.0000 </r>
       <r>    4.4570    1.0000 </r>
       <r>    4.8030    1.0000 </r>
       <r>    5.3387    1.0000 </r>
       <r>    5.5764    1.0000 </r>
       <r>    5.7083    1.0000 </r>
       <r>    6.0543    1.0000 </r>
       <r>    8.1842   -0.0000 </r>
       <r>    8.6033   -0.0000 </r>
       <r>    9.1128   -0.0000 </r>
       <r>    9.8557    0.0000 </r>
       <r>   10.2799    0.0000 </r>
       <r>   10.5335    0.0000 </r>
       <r>   10.7751    0.0000 </r>
       <r>   10.9910    0.0000 </r>
       <r>   11.3414    0.0000 </r>
       <r>   11.5439    0.0000 </r>
       <r>   11.8863    0.0000 </r>
       <r>   12.7678    0.0000 </r>
      </set>
      <set comment="kpoint 98">
       <r>   -6.5428    1.0000 </r>
       <r>   -6.4999    1.0000 </r>
       <r>   -6.3018    1.0000 </r>
       <r>   -6.2687    1.0000 </r>
       <r>    0.3074    1.0000 </r>
       <r>    0.3578    1.0000 </r>
       <r>    0.4660    1.0000 </r>
       <r>    0.6298    1.0000 </r>
       <r>    0.7392    1.0000 </r>
       <r>    0.8454    1.0000 </r>
       <r>    0.9067    1.0000 </r>
       <r>    1.0181    1.0000 </r>
       <r>    1.1592    1.0000 </r>
       <r>    1.1714    1.0000 </r>
       <r>    1.2183    1.0000 </r>
       <r>    1.3519    1.0000 </r>
       <r>    1.4225    1.0000 </r>
       <r>    1.4920    1.0000 </r>
       <r>    1.5659    1.0000 </r>
       <r>    1.6302    1.0000 </r>
       <r>    1.6754    1.0000 </r>
       <r>    1.7215    1.0000 </r>
       <r>    1.7822    1.0000 </r>
       <r>    1.8855    1.0000 </r>
       <r>    1.9575    1.0000 </r>
       <r>    2.0026    1.0000 </r>
       <r>    2.0486    1.0000 </r>
       <r>    2.0929    1.0000 </r>
       <r>    2.1287    1.0000 </r>
       <r>    2.2451    1.0000 </r>
       <r>    2.2602    1.0000 </r>
       <r>    2.3335    1.0000 </r>
       <r>    2.3639    1.0000 </r>
       <r>    2.4258    1.0000 </r>
       <r>    2.4688    1.0000 </r>
       <r>    2.5402    1.0000 </r>
       <r>    2.5730    1.0000 </r>
       <r>    2.6001    1.0000 </r>
       <r>    2.6617    1.0000 </r>
       <r>    2.7193    1.0000 </r>
       <r>    2.7605    1.0000 </r>
       <r>    2.8273    1.0000 </r>
       <r>    2.9096    1.0000 </r>
       <r>    3.0174    1.0000 </r>
       <r>    3.2356    1.0000 </r>
       <r>    3.4753    1.0000 </r>
       <r>    3.7569    1.0000 </r>
       <r>    3.9037    1.0000 </r>
       <r>    4.1972    1.0000 </r>
       <r>    4.2810    1.0000 </r>
       <r>    4.4088    1.0000 </r>
       <r>    4.6465    1.0000 </r>
       <r>    5.1738    1.0000 </r>
       <r>    5.4214    1.0000 </r>
       <r>    5.6096    1.0000 </r>
       <r>    5.9657    1.0000 </r>
       <r>    8.0614   -0.0000 </r>
       <r>    8.6024   -0.0000 </r>
       <r>    8.9726   -0.0000 </r>
       <r>    9.6393    0.0000 </r>
       <r>   10.0177    0.0000 </r>
       <r>   10.5251    0.0000 </r>
       <r>   10.8847    0.0000 </r>
       <r>   11.1748    0.0000 </r>
       <r>   11.3625    0.0000 </r>
       <r>   11.6988    0.0000 </r>
       <r>   12.4363    0.0000 </r>
       <r>   12.8259    0.0000 </r>
      </set>
      <set comment="kpoint 99">
       <r>   -6.4801    1.0000 </r>
       <r>   -6.4251    1.0000 </r>
       <r>   -6.3163    1.0000 </r>
       <r>   -6.2630    1.0000 </r>
       <r>    0.3128    1.0000 </r>
       <r>    0.3673    1.0000 </r>
       <r>    0.4365    1.0000 </r>
       <r>    0.6463    1.0000 </r>
       <r>    0.7885    1.0000 </r>
       <r>    0.8523    1.0000 </r>
       <r>    0.8768    1.0000 </r>
       <r>    0.9984    1.0000 </r>
       <r>    1.1824    1.0000 </r>
       <r>    1.2196    1.0000 </r>
       <r>    1.2790    1.0000 </r>
       <r>    1.3459    1.0000 </r>
       <r>    1.4169    1.0000 </r>
       <r>    1.5514    1.0000 </r>
       <r>    1.5701    1.0000 </r>
       <r>    1.6668    1.0000 </r>
       <r>    1.6968    1.0000 </r>
       <r>    1.7418    1.0000 </r>
       <r>    1.8332    1.0000 </r>
       <r>    1.9151    1.0000 </r>
       <r>    1.9569    1.0000 </r>
       <r>    2.0060    1.0000 </r>
       <r>    2.0738    1.0000 </r>
       <r>    2.1008    1.0000 </r>
       <r>    2.1563    1.0000 </r>
       <r>    2.2254    1.0000 </r>
       <r>    2.2616    1.0000 </r>
       <r>    2.3109    1.0000 </r>
       <r>    2.3576    1.0000 </r>
       <r>    2.3978    1.0000 </r>
       <r>    2.4599    1.0000 </r>
       <r>    2.5012    1.0000 </r>
       <r>    2.5213    1.0000 </r>
       <r>    2.5740    1.0000 </r>
       <r>    2.6279    1.0000 </r>
       <r>    2.6970    1.0000 </r>
       <r>    2.7424    1.0000 </r>
       <r>    2.7709    1.0000 </r>
       <r>    2.9136    1.0000 </r>
       <r>    2.9898    1.0000 </r>
       <r>    3.1993    1.0000 </r>
       <r>    3.4225    1.0000 </r>
       <r>    3.5358    1.0000 </r>
       <r>    3.9478    1.0000 </r>
       <r>    4.0010    1.0000 </r>
       <r>    4.3454    1.0000 </r>
       <r>    4.4584    1.0000 </r>
       <r>    4.7257    1.0000 </r>
       <r>    5.1362    1.0000 </r>
       <r>    5.2015    1.0000 </r>
       <r>    5.5950    1.0000 </r>
       <r>    5.9111    1.0000 </r>
       <r>    8.0148   -0.0000 </r>
       <r>    8.3986   -0.0000 </r>
       <r>    9.1134   -0.0000 </r>
       <r>    9.3569    0.0000 </r>
       <r>   10.0398    0.0000 </r>
       <r>   10.1760    0.0000 </r>
       <r>   11.0513    0.0000 </r>
       <r>   11.2312    0.0000 </r>
       <r>   11.3426    0.0000 </r>
       <r>   11.5939    0.0000 </r>
       <r>   12.2363    0.0000 </r>
       <r>   12.8184    0.0000 </r>
      </set>
      <set comment="kpoint 100">
       <r>   -6.4196    1.0000 </r>
       <r>   -6.3868    1.0000 </r>
       <r>   -6.3459    1.0000 </r>
       <r>   -6.2592    1.0000 </r>
       <r>    0.3112    1.0000 </r>
       <r>    0.3995    1.0000 </r>
       <r>    0.4140    1.0000 </r>
       <r>    0.6271    1.0000 </r>
       <r>    0.7899    1.0000 </r>
       <r>    0.8633    1.0000 </r>
       <r>    0.9097    1.0000 </r>
       <r>    0.9801    1.0000 </r>
       <r>    1.1818    1.0000 </r>
       <r>    1.2473    1.0000 </r>
       <r>    1.3036    1.0000 </r>
       <r>    1.3430    1.0000 </r>
       <r>    1.4588    1.0000 </r>
       <r>    1.5552    1.0000 </r>
       <r>    1.5980    1.0000 </r>
       <r>    1.6806    1.0000 </r>
       <r>    1.7318    1.0000 </r>
       <r>    1.7772    1.0000 </r>
       <r>    1.8540    1.0000 </r>
       <r>    1.9366    1.0000 </r>
       <r>    1.9606    1.0000 </r>
       <r>    2.0235    1.0000 </r>
       <r>    2.0857    1.0000 </r>
       <r>    2.1554    1.0000 </r>
       <r>    2.1817    1.0000 </r>
       <r>    2.2150    1.0000 </r>
       <r>    2.2447    1.0000 </r>
       <r>    2.2851    1.0000 </r>
       <r>    2.3332    1.0000 </r>
       <r>    2.3672    1.0000 </r>
       <r>    2.4523    1.0000 </r>
       <r>    2.4840    1.0000 </r>
       <r>    2.5276    1.0000 </r>
       <r>    2.5775    1.0000 </r>
       <r>    2.6276    1.0000 </r>
       <r>    2.6593    1.0000 </r>
       <r>    2.7162    1.0000 </r>
       <r>    2.7524    1.0000 </r>
       <r>    2.9095    1.0000 </r>
       <r>    2.9473    1.0000 </r>
       <r>    3.0813    1.0000 </r>
       <r>    3.2788    1.0000 </r>
       <r>    3.4699    1.0000 </r>
       <r>    3.6925    1.0000 </r>
       <r>    4.1319    1.0000 </r>
       <r>    4.3990    1.0000 </r>
       <r>    4.5419    1.0000 </r>
       <r>    4.7906    1.0000 </r>
       <r>    4.8613    1.0000 </r>
       <r>    5.2846    1.0000 </r>
       <r>    5.6375    1.0000 </r>
       <r>    5.8730    1.0000 </r>
       <r>    8.1681   -0.0000 </r>
       <r>    8.5240   -0.0000 </r>
       <r>    9.1078   -0.0000 </r>
       <r>    9.1970   -0.0000 </r>
       <r>    9.7549    0.0000 </r>
       <r>   10.1925    0.0000 </r>
       <r>   10.9220    0.0000 </r>
       <r>   11.0499    0.0000 </r>
       <r>   11.3157    0.0000 </r>
       <r>   11.5638    0.0000 </r>
       <r>   11.8593    0.0000 </r>
       <r>   12.8817    0.0000 </r>
      </set>
      <set comment="kpoint 101">
       <r>   -6.4463    1.0000 </r>
       <r>   -6.3685    1.0000 </r>
       <r>   -6.3377    1.0000 </r>
       <r>   -6.2592    1.0000 </r>
       <r>    0.3066    1.0000 </r>
       <r>    0.4094    1.0000 </r>
       <r>    0.4576    1.0000 </r>
       <r>    0.6077    1.0000 </r>
       <r>    0.7703    1.0000 </r>
       <r>    0.8498    1.0000 </r>
       <r>    0.9394    1.0000 </r>
       <r>    0.9955    1.0000 </r>
       <r>    1.1212    1.0000 </r>
       <r>    1.2380    1.0000 </r>
       <r>    1.3059    1.0000 </r>
       <r>    1.3759    1.0000 </r>
       <r>    1.4953    1.0000 </r>
       <r>    1.5367    1.0000 </r>
       <r>    1.5924    1.0000 </r>
       <r>    1.6885    1.0000 </r>
       <r>    1.7543    1.0000 </r>
       <r>    1.8209    1.0000 </r>
       <r>    1.8565    1.0000 </r>
       <r>    1.9255    1.0000 </r>
       <r>    1.9628    1.0000 </r>
       <r>    2.0210    1.0000 </r>
       <r>    2.1021    1.0000 </r>
       <r>    2.1251    1.0000 </r>
       <r>    2.2022    1.0000 </r>
       <r>    2.2407    1.0000 </r>
       <r>    2.2548    1.0000 </r>
       <r>    2.2944    1.0000 </r>
       <r>    2.3390    1.0000 </r>
       <r>    2.3811    1.0000 </r>
       <r>    2.4480    1.0000 </r>
       <r>    2.4648    1.0000 </r>
       <r>    2.5335    1.0000 </r>
       <r>    2.5571    1.0000 </r>
       <r>    2.6243    1.0000 </r>
       <r>    2.6677    1.0000 </r>
       <r>    2.7368    1.0000 </r>
       <r>    2.8003    1.0000 </r>
       <r>    2.8364    1.0000 </r>
       <r>    2.9328    1.0000 </r>
       <r>    2.9899    1.0000 </r>
       <r>    3.2098    1.0000 </r>
       <r>    3.3842    1.0000 </r>
       <r>    3.6352    1.0000 </r>
       <r>    4.2251    1.0000 </r>
       <r>    4.3138    1.0000 </r>
       <r>    4.5319    1.0000 </r>
       <r>    4.7194    1.0000 </r>
       <r>    4.9900    1.0000 </r>
       <r>    5.3901    1.0000 </r>
       <r>    5.6686    1.0000 </r>
       <r>    5.8165    1.0000 </r>
       <r>    8.5724   -0.0000 </r>
       <r>    8.7606   -0.0000 </r>
       <r>    9.0143   -0.0000 </r>
       <r>    9.2458   -0.0000 </r>
       <r>    9.5127    0.0000 </r>
       <r>   10.2057    0.0000 </r>
       <r>   10.6723    0.0000 </r>
       <r>   10.8468    0.0000 </r>
       <r>   11.1395    0.0000 </r>
       <r>   11.5306    0.0000 </r>
       <r>   11.9256    0.0000 </r>
       <r>   12.8973    0.0000 </r>
      </set>
      <set comment="kpoint 102">
       <r>   -6.5385    1.0000 </r>
       <r>   -6.3576    1.0000 </r>
       <r>   -6.3248    1.0000 </r>
       <r>   -6.2632    1.0000 </r>
       <r>    0.3179    1.0000 </r>
       <r>    0.3929    1.0000 </r>
       <r>    0.5001    1.0000 </r>
       <r>    0.6102    1.0000 </r>
       <r>    0.7300    1.0000 </r>
       <r>    0.8444    1.0000 </r>
       <r>    0.9218    1.0000 </r>
       <r>    1.0346    1.0000 </r>
       <r>    1.0801    1.0000 </r>
       <r>    1.2215    1.0000 </r>
       <r>    1.3284    1.0000 </r>
       <r>    1.3650    1.0000 </r>
       <r>    1.4868    1.0000 </r>
       <r>    1.5155    1.0000 </r>
       <r>    1.5920    1.0000 </r>
       <r>    1.6733    1.0000 </r>
       <r>    1.7030    1.0000 </r>
       <r>    1.8144    1.0000 </r>
       <r>    1.8444    1.0000 </r>
       <r>    1.9118    1.0000 </r>
       <r>    1.9517    1.0000 </r>
       <r>    2.0276    1.0000 </r>
       <r>    2.0678    1.0000 </r>
       <r>    2.1106    1.0000 </r>
       <r>    2.1664    1.0000 </r>
       <r>    2.2589    1.0000 </r>
       <r>    2.2836    1.0000 </r>
       <r>    2.3247    1.0000 </r>
       <r>    2.3696    1.0000 </r>
       <r>    2.4016    1.0000 </r>
       <r>    2.4488    1.0000 </r>
       <r>    2.4953    1.0000 </r>
       <r>    2.5178    1.0000 </r>
       <r>    2.5942    1.0000 </r>
       <r>    2.6230    1.0000 </r>
       <r>    2.6639    1.0000 </r>
       <r>    2.7129    1.0000 </r>
       <r>    2.7710    1.0000 </r>
       <r>    2.8875    1.0000 </r>
       <r>    2.9424    1.0000 </r>
       <r>    3.0732    1.0000 </r>
       <r>    3.2733    1.0000 </r>
       <r>    3.3610    1.0000 </r>
       <r>    3.7114    1.0000 </r>
       <r>    4.0676    1.0000 </r>
       <r>    4.2014    1.0000 </r>
       <r>    4.7020    1.0000 </r>
       <r>    4.7611    1.0000 </r>
       <r>    5.1049    1.0000 </r>
       <r>    5.4285    1.0000 </r>
       <r>    5.5228    1.0000 </r>
       <r>    5.9897    1.0000 </r>
       <r>    8.5185   -0.0000 </r>
       <r>    8.9198   -0.0000 </r>
       <r>    9.2407   -0.0000 </r>
       <r>    9.5641    0.0000 </r>
       <r>    9.6959    0.0000 </r>
       <r>    9.9303    0.0000 </r>
       <r>   10.6550    0.0000 </r>
       <r>   10.7936    0.0000 </r>
       <r>   11.0265    0.0000 </r>
       <r>   11.6715    0.0000 </r>
       <r>   11.9467    0.0000 </r>
       <r>   12.7432    0.0000 </r>
      </set>
      <set comment="kpoint 103">
       <r>   -6.6372    1.0000 </r>
       <r>   -6.3869    1.0000 </r>
       <r>   -6.3227    1.0000 </r>
       <r>   -6.2633    1.0000 </r>
       <r>    0.3138    1.0000 </r>
       <r>    0.3713    1.0000 </r>
       <r>    0.5102    1.0000 </r>
       <r>    0.6108    1.0000 </r>
       <r>    0.6895    1.0000 </r>
       <r>    0.8285    1.0000 </r>
       <r>    0.9194    1.0000 </r>
       <r>    1.0268    1.0000 </r>
       <r>    1.1177    1.0000 </r>
       <r>    1.2007    1.0000 </r>
       <r>    1.3128    1.0000 </r>
       <r>    1.3327    1.0000 </r>
       <r>    1.4440    1.0000 </r>
       <r>    1.5094    1.0000 </r>
       <r>    1.5743    1.0000 </r>
       <r>    1.6394    1.0000 </r>
       <r>    1.6762    1.0000 </r>
       <r>    1.7828    1.0000 </r>
       <r>    1.7976    1.0000 </r>
       <r>    1.8929    1.0000 </r>
       <r>    1.9254    1.0000 </r>
       <r>    1.9918    1.0000 </r>
       <r>    2.0445    1.0000 </r>
       <r>    2.1049    1.0000 </r>
       <r>    2.1653    1.0000 </r>
       <r>    2.2400    1.0000 </r>
       <r>    2.3195    1.0000 </r>
       <r>    2.3453    1.0000 </r>
       <r>    2.3873    1.0000 </r>
       <r>    2.4196    1.0000 </r>
       <r>    2.4727    1.0000 </r>
       <r>    2.5442    1.0000 </r>
       <r>    2.5611    1.0000 </r>
       <r>    2.5940    1.0000 </r>
       <r>    2.6504    1.0000 </r>
       <r>    2.6658    1.0000 </r>
       <r>    2.7151    1.0000 </r>
       <r>    2.8174    1.0000 </r>
       <r>    2.9042    1.0000 </r>
       <r>    2.9356    1.0000 </r>
       <r>    3.2193    1.0000 </r>
       <r>    3.3597    1.0000 </r>
       <r>    3.4686    1.0000 </r>
       <r>    3.8144    1.0000 </r>
       <r>    3.9882    1.0000 </r>
       <r>    4.2530    1.0000 </r>
       <r>    4.8125    1.0000 </r>
       <r>    4.8781    1.0000 </r>
       <r>    4.9696    1.0000 </r>
       <r>    5.3769    1.0000 </r>
       <r>    5.6380    1.0000 </r>
       <r>    6.1378    1.0000 </r>
       <r>    8.1441   -0.0000 </r>
       <r>    9.0566   -0.0000 </r>
       <r>    9.4421    0.0000 </r>
       <r>    9.8797    0.0000 </r>
       <r>    9.9527    0.0000 </r>
       <r>   10.0709    0.0000 </r>
       <r>   10.7331    0.0000 </r>
       <r>   10.9226    0.0000 </r>
       <r>   11.0630    0.0000 </r>
       <r>   11.7389    0.0000 </r>
       <r>   12.0655    0.0000 </r>
       <r>   12.6940    0.0000 </r>
      </set>
      <set comment="kpoint 104">
       <r>   -6.7255    1.0000 </r>
       <r>   -6.4356    1.0000 </r>
       <r>   -6.3364    1.0000 </r>
       <r>   -6.2624    1.0000 </r>
       <r>    0.2604    1.0000 </r>
       <r>    0.3740    1.0000 </r>
       <r>    0.5114    1.0000 </r>
       <r>    0.5543    1.0000 </r>
       <r>    0.6819    1.0000 </r>
       <r>    0.8110    1.0000 </r>
       <r>    0.9272    1.0000 </r>
       <r>    1.0025    1.0000 </r>
       <r>    1.1030    1.0000 </r>
       <r>    1.1816    1.0000 </r>
       <r>    1.2993    1.0000 </r>
       <r>    1.3614    1.0000 </r>
       <r>    1.4083    1.0000 </r>
       <r>    1.4736    1.0000 </r>
       <r>    1.5188    1.0000 </r>
       <r>    1.6225    1.0000 </r>
       <r>    1.6688    1.0000 </r>
       <r>    1.7422    1.0000 </r>
       <r>    1.7778    1.0000 </r>
       <r>    1.8605    1.0000 </r>
       <r>    1.9303    1.0000 </r>
       <r>    2.0126    1.0000 </r>
       <r>    2.0626    1.0000 </r>
       <r>    2.0918    1.0000 </r>
       <r>    2.1629    1.0000 </r>
       <r>    2.2220    1.0000 </r>
       <r>    2.3102    1.0000 </r>
       <r>    2.3661    1.0000 </r>
       <r>    2.4121    1.0000 </r>
       <r>    2.4497    1.0000 </r>
       <r>    2.4912    1.0000 </r>
       <r>    2.5642    1.0000 </r>
       <r>    2.5891    1.0000 </r>
       <r>    2.6092    1.0000 </r>
       <r>    2.6522    1.0000 </r>
       <r>    2.6928    1.0000 </r>
       <r>    2.7582    1.0000 </r>
       <r>    2.8578    1.0000 </r>
       <r>    2.9064    1.0000 </r>
       <r>    2.9348    1.0000 </r>
       <r>    3.2511    1.0000 </r>
       <r>    3.4379    1.0000 </r>
       <r>    3.6110    1.0000 </r>
       <r>    3.7677    1.0000 </r>
       <r>    4.2977    1.0000 </r>
       <r>    4.4255    1.0000 </r>
       <r>    4.6304    1.0000 </r>
       <r>    5.0074    1.0000 </r>
       <r>    5.1559    1.0000 </r>
       <r>    5.2752    1.0000 </r>
       <r>    5.8033    1.0000 </r>
       <r>    6.2149    1.0000 </r>
       <r>    7.8118   -0.0000 </r>
       <r>    9.0792   -0.0000 </r>
       <r>    9.3952    0.0000 </r>
       <r>    9.8308    0.0000 </r>
       <r>   10.2480    0.0000 </r>
       <r>   10.4092    0.0000 </r>
       <r>   10.9975    0.0000 </r>
       <r>   11.1125    0.0000 </r>
       <r>   11.3643    0.0000 </r>
       <r>   11.5802    0.0000 </r>
       <r>   12.4004    0.0000 </r>
       <r>   12.5716    0.0000 </r>
      </set>
      <set comment="kpoint 105">
       <r>   -6.7895    1.0000 </r>
       <r>   -6.4927    1.0000 </r>
       <r>   -6.3497    1.0000 </r>
       <r>   -6.2676    1.0000 </r>
       <r>    0.2000    1.0000 </r>
       <r>    0.3728    1.0000 </r>
       <r>    0.4786    1.0000 </r>
       <r>    0.5186    1.0000 </r>
       <r>    0.6917    1.0000 </r>
       <r>    0.7530    1.0000 </r>
       <r>    0.9427    1.0000 </r>
       <r>    0.9648    1.0000 </r>
       <r>    1.0645    1.0000 </r>
       <r>    1.2142    1.0000 </r>
       <r>    1.3141    1.0000 </r>
       <r>    1.3503    1.0000 </r>
       <r>    1.4014    1.0000 </r>
       <r>    1.4561    1.0000 </r>
       <r>    1.5160    1.0000 </r>
       <r>    1.5746    1.0000 </r>
       <r>    1.6760    1.0000 </r>
       <r>    1.6952    1.0000 </r>
       <r>    1.8068    1.0000 </r>
       <r>    1.8811    1.0000 </r>
       <r>    1.9499    1.0000 </r>
       <r>    2.0237    1.0000 </r>
       <r>    2.0522    1.0000 </r>
       <r>    2.1237    1.0000 </r>
       <r>    2.1414    1.0000 </r>
       <r>    2.2244    1.0000 </r>
       <r>    2.2853    1.0000 </r>
       <r>    2.3798    1.0000 </r>
       <r>    2.4157    1.0000 </r>
       <r>    2.4491    1.0000 </r>
       <r>    2.5008    1.0000 </r>
       <r>    2.5782    1.0000 </r>
       <r>    2.6045    1.0000 </r>
       <r>    2.6252    1.0000 </r>
       <r>    2.6703    1.0000 </r>
       <r>    2.7140    1.0000 </r>
       <r>    2.8065    1.0000 </r>
       <r>    2.8841    1.0000 </r>
       <r>    2.8921    1.0000 </r>
       <r>    2.9645    1.0000 </r>
       <r>    3.1685    1.0000 </r>
       <r>    3.3981    1.0000 </r>
       <r>    3.6211    1.0000 </r>
       <r>    3.9938    1.0000 </r>
       <r>    4.2584    1.0000 </r>
       <r>    4.6462    1.0000 </r>
       <r>    4.8403    1.0000 </r>
       <r>    5.0728    1.0000 </r>
       <r>    5.2020    1.0000 </r>
       <r>    5.5799    1.0000 </r>
       <r>    5.9333    1.0000 </r>
       <r>    6.2660    1.0002 </r>
       <r>    7.5459   -0.0000 </r>
       <r>    8.7866   -0.0000 </r>
       <r>    9.0410   -0.0000 </r>
       <r>   10.0118    0.0000 </r>
       <r>   10.3151    0.0000 </r>
       <r>   10.6782    0.0000 </r>
       <r>   10.9962    0.0000 </r>
       <r>   11.3515    0.0000 </r>
       <r>   11.5646    0.0000 </r>
       <r>   11.8174    0.0000 </r>
       <r>   12.2327    0.0000 </r>
       <r>   12.4733    0.0000 </r>
      </set>
      <set comment="kpoint 106">
       <r>   -6.8197    1.0000 </r>
       <r>   -6.5474    1.0000 </r>
       <r>   -6.3538    1.0000 </r>
       <r>   -6.2779    1.0000 </r>
       <r>    0.1514    1.0000 </r>
       <r>    0.3379    1.0000 </r>
       <r>    0.4783    1.0000 </r>
       <r>    0.5332    1.0000 </r>
       <r>    0.6469    1.0000 </r>
       <r>    0.7311    1.0000 </r>
       <r>    0.9120    1.0000 </r>
       <r>    0.9544    1.0000 </r>
       <r>    1.0938    1.0000 </r>
       <r>    1.2302    1.0000 </r>
       <r>    1.2845    1.0000 </r>
       <r>    1.3680    1.0000 </r>
       <r>    1.4154    1.0000 </r>
       <r>    1.4659    1.0000 </r>
       <r>    1.5220    1.0000 </r>
       <r>    1.5344    1.0000 </r>
       <r>    1.6790    1.0000 </r>
       <r>    1.7157    1.0000 </r>
       <r>    1.8221    1.0000 </r>
       <r>    1.9170    1.0000 </r>
       <r>    1.9482    1.0000 </r>
       <r>    1.9846    1.0000 </r>
       <r>    2.0664    1.0000 </r>
       <r>    2.1149    1.0000 </r>
       <r>    2.1605    1.0000 </r>
       <r>    2.2138    1.0000 </r>
       <r>    2.3006    1.0000 </r>
       <r>    2.3653    1.0000 </r>
       <r>    2.4038    1.0000 </r>
       <r>    2.4395    1.0000 </r>
       <r>    2.4685    1.0000 </r>
       <r>    2.5821    1.0000 </r>
       <r>    2.5991    1.0000 </r>
       <r>    2.6412    1.0000 </r>
       <r>    2.6998    1.0000 </r>
       <r>    2.7386    1.0000 </r>
       <r>    2.8401    1.0000 </r>
       <r>    2.8917    1.0000 </r>
       <r>    2.9350    1.0000 </r>
       <r>    3.0169    1.0000 </r>
       <r>    3.0832    1.0000 </r>
       <r>    3.3477    1.0000 </r>
       <r>    3.5191    1.0000 </r>
       <r>    3.9340    1.0000 </r>
       <r>    4.5077    1.0000 </r>
       <r>    4.6044    1.0000 </r>
       <r>    4.9219    1.0000 </r>
       <r>    5.3637    1.0000 </r>
       <r>    5.3852    1.0000 </r>
       <r>    5.8929    1.0000 </r>
       <r>    6.0767    1.0000 </r>
       <r>    6.3625    1.0125 </r>
       <r>    7.3748   -0.0000 </r>
       <r>    8.3888   -0.0000 </r>
       <r>    8.6411   -0.0000 </r>
       <r>    9.7177    0.0000 </r>
       <r>   10.4054    0.0000 </r>
       <r>   10.8877    0.0000 </r>
       <r>   11.0543    0.0000 </r>
       <r>   11.4597    0.0000 </r>
       <r>   11.7606    0.0000 </r>
       <r>   11.8896    0.0000 </r>
       <r>   12.2015    0.0000 </r>
       <r>   12.6118    0.0000 </r>
      </set>
      <set comment="kpoint 107">
       <r>   -6.7432    1.0000 </r>
       <r>   -6.5432    1.0000 </r>
       <r>   -6.4196    1.0000 </r>
       <r>   -6.3359    1.0000 </r>
       <r>    0.1641    1.0000 </r>
       <r>    0.2737    1.0000 </r>
       <r>    0.4493    1.0000 </r>
       <r>    0.5389    1.0000 </r>
       <r>    0.6668    1.0000 </r>
       <r>    0.7162    1.0000 </r>
       <r>    0.7843    1.0000 </r>
       <r>    0.9624    1.0000 </r>
       <r>    1.0855    1.0000 </r>
       <r>    1.1668    1.0000 </r>
       <r>    1.2297    1.0000 </r>
       <r>    1.3011    1.0000 </r>
       <r>    1.3696    1.0000 </r>
       <r>    1.4586    1.0000 </r>
       <r>    1.5869    1.0000 </r>
       <r>    1.6281    1.0000 </r>
       <r>    1.6885    1.0000 </r>
       <r>    1.7408    1.0000 </r>
       <r>    1.8480    1.0000 </r>
       <r>    1.8970    1.0000 </r>
       <r>    1.9575    1.0000 </r>
       <r>    2.0281    1.0000 </r>
       <r>    2.0672    1.0000 </r>
       <r>    2.1624    1.0000 </r>
       <r>    2.1942    1.0000 </r>
       <r>    2.2458    1.0000 </r>
       <r>    2.2811    1.0000 </r>
       <r>    2.3302    1.0000 </r>
       <r>    2.4092    1.0000 </r>
       <r>    2.4582    1.0000 </r>
       <r>    2.4763    1.0000 </r>
       <r>    2.5496    1.0000 </r>
       <r>    2.6325    1.0000 </r>
       <r>    2.6580    1.0000 </r>
       <r>    2.6918    1.0000 </r>
       <r>    2.7412    1.0000 </r>
       <r>    2.8241    1.0000 </r>
       <r>    2.8618    1.0000 </r>
       <r>    2.9213    1.0000 </r>
       <r>    2.9922    1.0000 </r>
       <r>    3.1299    1.0000 </r>
       <r>    3.3203    1.0000 </r>
       <r>    3.5023    1.0000 </r>
       <r>    3.8880    1.0000 </r>
       <r>    4.7233    1.0000 </r>
       <r>    4.8099    1.0000 </r>
       <r>    5.1406    1.0000 </r>
       <r>    5.4139    1.0000 </r>
       <r>    5.6711    1.0000 </r>
       <r>    5.9278    1.0000 </r>
       <r>    6.1352    1.0000 </r>
       <r>    6.3508    1.0088 </r>
       <r>    7.6159   -0.0000 </r>
       <r>    7.8648   -0.0000 </r>
       <r>    8.5807   -0.0000 </r>
       <r>    9.0172   -0.0000 </r>
       <r>   10.6504    0.0000 </r>
       <r>   10.8431    0.0000 </r>
       <r>   11.0109    0.0000 </r>
       <r>   11.3761    0.0000 </r>
       <r>   11.4374    0.0000 </r>
       <r>   11.8505    0.0000 </r>
       <r>   12.0918    0.0000 </r>
       <r>   12.2972    0.0000 </r>
      </set>
      <set comment="kpoint 108">
       <r>   -6.7028    1.0000 </r>
       <r>   -6.5624    1.0000 </r>
       <r>   -6.3964    1.0000 </r>
       <r>   -6.3468    1.0000 </r>
       <r>    0.1842    1.0000 </r>
       <r>    0.2854    1.0000 </r>
       <r>    0.4802    1.0000 </r>
       <r>    0.5934    1.0000 </r>
       <r>    0.6659    1.0000 </r>
       <r>    0.6759    1.0000 </r>
       <r>    0.7731    1.0000 </r>
       <r>    0.9850    1.0000 </r>
       <r>    1.0882    1.0000 </r>
       <r>    1.1737    1.0000 </r>
       <r>    1.2411    1.0000 </r>
       <r>    1.3047    1.0000 </r>
       <r>    1.3422    1.0000 </r>
       <r>    1.4543    1.0000 </r>
       <r>    1.5640    1.0000 </r>
       <r>    1.6012    1.0000 </r>
       <r>    1.7042    1.0000 </r>
       <r>    1.7144    1.0000 </r>
       <r>    1.8377    1.0000 </r>
       <r>    1.8945    1.0000 </r>
       <r>    1.9561    1.0000 </r>
       <r>    2.0150    1.0000 </r>
       <r>    2.0683    1.0000 </r>
       <r>    2.1364    1.0000 </r>
       <r>    2.1951    1.0000 </r>
       <r>    2.2427    1.0000 </r>
       <r>    2.2901    1.0000 </r>
       <r>    2.3353    1.0000 </r>
       <r>    2.4046    1.0000 </r>
       <r>    2.4356    1.0000 </r>
       <r>    2.4914    1.0000 </r>
       <r>    2.5627    1.0000 </r>
       <r>    2.6221    1.0000 </r>
       <r>    2.6718    1.0000 </r>
       <r>    2.6988    1.0000 </r>
       <r>    2.7480    1.0000 </r>
       <r>    2.8149    1.0000 </r>
       <r>    2.8666    1.0000 </r>
       <r>    2.9152    1.0000 </r>
       <r>    3.0069    1.0000 </r>
       <r>    3.1949    1.0000 </r>
       <r>    3.3502    1.0000 </r>
       <r>    3.5463    1.0000 </r>
       <r>    3.8973    1.0000 </r>
       <r>    4.5617    1.0000 </r>
       <r>    4.7277    1.0000 </r>
       <r>    5.0640    1.0000 </r>
       <r>    5.3611    1.0000 </r>
       <r>    5.6253    1.0000 </r>
       <r>    5.9246    1.0000 </r>
       <r>    6.0075    1.0000 </r>
       <r>    6.2200    1.0000 </r>
       <r>    7.8122   -0.0000 </r>
       <r>    8.0222   -0.0000 </r>
       <r>    8.9294   -0.0000 </r>
       <r>    9.2573   -0.0000 </r>
       <r>   10.3826    0.0000 </r>
       <r>   10.7036    0.0000 </r>
       <r>   10.9062    0.0000 </r>
       <r>   11.2669    0.0000 </r>
       <r>   11.3116    0.0000 </r>
       <r>   11.4294    0.0000 </r>
       <r>   12.0221    0.0000 </r>
       <r>   12.2743    0.0000 </r>
      </set>
      <set comment="kpoint 109">
       <r>   -6.6375    1.0000 </r>
       <r>   -6.5586    1.0000 </r>
       <r>   -6.3654    1.0000 </r>
       <r>   -6.3478    1.0000 </r>
       <r>    0.2228    1.0000 </r>
       <r>    0.3184    1.0000 </r>
       <r>    0.5076    1.0000 </r>
       <r>    0.6080    1.0000 </r>
       <r>    0.6739    1.0000 </r>
       <r>    0.7171    1.0000 </r>
       <r>    0.8107    1.0000 </r>
       <r>    0.9923    1.0000 </r>
       <r>    1.0824    1.0000 </r>
       <r>    1.1770    1.0000 </r>
       <r>    1.2360    1.0000 </r>
       <r>    1.3058    1.0000 </r>
       <r>    1.3411    1.0000 </r>
       <r>    1.4465    1.0000 </r>
       <r>    1.5377    1.0000 </r>
       <r>    1.5605    1.0000 </r>
       <r>    1.6569    1.0000 </r>
       <r>    1.7173    1.0000 </r>
       <r>    1.7840    1.0000 </r>
       <r>    1.9081    1.0000 </r>
       <r>    1.9674    1.0000 </r>
       <r>    2.0021    1.0000 </r>
       <r>    2.0754    1.0000 </r>
       <r>    2.0972    1.0000 </r>
       <r>    2.1896    1.0000 </r>
       <r>    2.2375    1.0000 </r>
       <r>    2.2988    1.0000 </r>
       <r>    2.3380    1.0000 </r>
       <r>    2.3832    1.0000 </r>
       <r>    2.4583    1.0000 </r>
       <r>    2.5032    1.0000 </r>
       <r>    2.5533    1.0000 </r>
       <r>    2.6161    1.0000 </r>
       <r>    2.6531    1.0000 </r>
       <r>    2.6874    1.0000 </r>
       <r>    2.7393    1.0000 </r>
       <r>    2.7953    1.0000 </r>
       <r>    2.8548    1.0000 </r>
       <r>    2.9102    1.0000 </r>
       <r>    3.0001    1.0000 </r>
       <r>    3.3443    1.0000 </r>
       <r>    3.5172    1.0000 </r>
       <r>    3.6125    1.0000 </r>
       <r>    3.9698    1.0000 </r>
       <r>    4.3349    1.0000 </r>
       <r>    4.6166    1.0000 </r>
       <r>    4.7729    1.0000 </r>
       <r>    5.1376    1.0000 </r>
       <r>    5.5399    1.0000 </r>
       <r>    5.6731    1.0000 </r>
       <r>    5.8783    1.0000 </r>
       <r>    6.0668    1.0000 </r>
       <r>    8.1767   -0.0000 </r>
       <r>    8.3631   -0.0000 </r>
       <r>    9.3872    0.0000 </r>
       <r>    9.7007    0.0000 </r>
       <r>    9.8391    0.0000 </r>
       <r>   10.3567    0.0000 </r>
       <r>   10.8519    0.0000 </r>
       <r>   10.9354    0.0000 </r>
       <r>   11.2558    0.0000 </r>
       <r>   11.4541    0.0000 </r>
       <r>   12.0464    0.0000 </r>
       <r>   12.3321    0.0000 </r>
      </set>
      <set comment="kpoint 110">
       <r>   -6.5638    1.0000 </r>
       <r>   -6.5270    1.0000 </r>
       <r>   -6.3479    1.0000 </r>
       <r>   -6.3268    1.0000 </r>
       <r>    0.2665    1.0000 </r>
       <r>    0.3409    1.0000 </r>
       <r>    0.5099    1.0000 </r>
       <r>    0.6198    1.0000 </r>
       <r>    0.6860    1.0000 </r>
       <r>    0.8039    1.0000 </r>
       <r>    0.8820    1.0000 </r>
       <r>    0.9834    1.0000 </r>
       <r>    1.0855    1.0000 </r>
       <r>    1.1296    1.0000 </r>
       <r>    1.2054    1.0000 </r>
       <r>    1.3278    1.0000 </r>
       <r>    1.3689    1.0000 </r>
       <r>    1.4707    1.0000 </r>
       <r>    1.5396    1.0000 </r>
       <r>    1.5838    1.0000 </r>
       <r>    1.6153    1.0000 </r>
       <r>    1.7136    1.0000 </r>
       <r>    1.7503    1.0000 </r>
       <r>    1.8981    1.0000 </r>
       <r>    1.9522    1.0000 </r>
       <r>    1.9957    1.0000 </r>
       <r>    2.0631    1.0000 </r>
       <r>    2.1093    1.0000 </r>
       <r>    2.1904    1.0000 </r>
       <r>    2.2153    1.0000 </r>
       <r>    2.3000    1.0000 </r>
       <r>    2.3210    1.0000 </r>
       <r>    2.3640    1.0000 </r>
       <r>    2.4602    1.0000 </r>
       <r>    2.4941    1.0000 </r>
       <r>    2.5328    1.0000 </r>
       <r>    2.5893    1.0000 </r>
       <r>    2.6344    1.0000 </r>
       <r>    2.6785    1.0000 </r>
       <r>    2.7274    1.0000 </r>
       <r>    2.7789    1.0000 </r>
       <r>    2.8368    1.0000 </r>
       <r>    2.8961    1.0000 </r>
       <r>    2.9989    1.0000 </r>
       <r>    3.4577    1.0000 </r>
       <r>    3.5794    1.0000 </r>
       <r>    3.8035    1.0000 </r>
       <r>    4.0191    1.0000 </r>
       <r>    4.1497    1.0000 </r>
       <r>    4.4174    1.0000 </r>
       <r>    4.5859    1.0000 </r>
       <r>    4.8510    1.0000 </r>
       <r>    5.3221    1.0000 </r>
       <r>    5.5505    1.0000 </r>
       <r>    5.7234    1.0000 </r>
       <r>    5.9873    1.0000 </r>
       <r>    8.4997   -0.0000 </r>
       <r>    8.5710   -0.0000 </r>
       <r>    9.0684   -0.0000 </r>
       <r>    9.7660    0.0000 </r>
       <r>    9.9993    0.0000 </r>
       <r>   10.1877    0.0000 </r>
       <r>   10.6145    0.0000 </r>
       <r>   10.9669    0.0000 </r>
       <r>   11.2904    0.0000 </r>
       <r>   11.8251    0.0000 </r>
       <r>   12.2062    0.0000 </r>
       <r>   12.4005    0.0000 </r>
      </set>
      <set comment="kpoint 111">
       <r>   -6.5057    1.0000 </r>
       <r>   -6.4630    1.0000 </r>
       <r>   -6.3383    1.0000 </r>
       <r>   -6.3027    1.0000 </r>
       <r>    0.3023    1.0000 </r>
       <r>    0.3306    1.0000 </r>
       <r>    0.5040    1.0000 </r>
       <r>    0.6254    1.0000 </r>
       <r>    0.7134    1.0000 </r>
       <r>    0.8624    1.0000 </r>
       <r>    0.9105    1.0000 </r>
       <r>    0.9787    1.0000 </r>
       <r>    1.1176    1.0000 </r>
       <r>    1.1489    1.0000 </r>
       <r>    1.1945    1.0000 </r>
       <r>    1.3485    1.0000 </r>
       <r>    1.4021    1.0000 </r>
       <r>    1.4929    1.0000 </r>
       <r>    1.5625    1.0000 </r>
       <r>    1.5959    1.0000 </r>
       <r>    1.6559    1.0000 </r>
       <r>    1.7345    1.0000 </r>
       <r>    1.7763    1.0000 </r>
       <r>    1.8813    1.0000 </r>
       <r>    1.9320    1.0000 </r>
       <r>    1.9809    1.0000 </r>
       <r>    2.0641    1.0000 </r>
       <r>    2.1065    1.0000 </r>
       <r>    2.1860    1.0000 </r>
       <r>    2.2140    1.0000 </r>
       <r>    2.2713    1.0000 </r>
       <r>    2.3048    1.0000 </r>
       <r>    2.3470    1.0000 </r>
       <r>    2.4126    1.0000 </r>
       <r>    2.4615    1.0000 </r>
       <r>    2.5608    1.0000 </r>
       <r>    2.5637    1.0000 </r>
       <r>    2.6009    1.0000 </r>
       <r>    2.6496    1.0000 </r>
       <r>    2.7271    1.0000 </r>
       <r>    2.7622    1.0000 </r>
       <r>    2.8139    1.0000 </r>
       <r>    2.8995    1.0000 </r>
       <r>    2.9987    1.0000 </r>
       <r>    3.2934    1.0000 </r>
       <r>    3.5533    1.0000 </r>
       <r>    3.8225    1.0000 </r>
       <r>    3.9739    1.0000 </r>
       <r>    4.1418    1.0000 </r>
       <r>    4.3569    1.0000 </r>
       <r>    4.5254    1.0000 </r>
       <r>    4.7982    1.0000 </r>
       <r>    5.1567    1.0000 </r>
       <r>    5.3633    1.0000 </r>
       <r>    5.6404    1.0000 </r>
       <r>    5.9172    1.0000 </r>
       <r>    8.4715   -0.0000 </r>
       <r>    8.6713   -0.0000 </r>
       <r>    8.7129   -0.0000 </r>
       <r>    9.7522    0.0000 </r>
       <r>    9.9361    0.0000 </r>
       <r>   10.2030    0.0000 </r>
       <r>   10.5699    0.0000 </r>
       <r>   11.2022    0.0000 </r>
       <r>   11.3474    0.0000 </r>
       <r>   11.9265    0.0000 </r>
       <r>   12.3934    0.0000 </r>
       <r>   12.6915    0.0000 </r>
      </set>
      <set comment="kpoint 112">
       <r>   -6.4517    1.0000 </r>
       <r>   -6.4009    1.0000 </r>
       <r>   -6.3369    1.0000 </r>
       <r>   -6.2892    1.0000 </r>
       <r>    0.3070    1.0000 </r>
       <r>    0.3338    1.0000 </r>
       <r>    0.4515    1.0000 </r>
       <r>    0.6503    1.0000 </r>
       <r>    0.7583    1.0000 </r>
       <r>    0.8190    1.0000 </r>
       <r>    0.9475    1.0000 </r>
       <r>    0.9988    1.0000 </r>
       <r>    1.1464    1.0000 </r>
       <r>    1.2075    1.0000 </r>
       <r>    1.2742    1.0000 </r>
       <r>    1.3319    1.0000 </r>
       <r>    1.4201    1.0000 </r>
       <r>    1.5226    1.0000 </r>
       <r>    1.5991    1.0000 </r>
       <r>    1.6406    1.0000 </r>
       <r>    1.6967    1.0000 </r>
       <r>    1.7389    1.0000 </r>
       <r>    1.8309    1.0000 </r>
       <r>    1.8711    1.0000 </r>
       <r>    1.9355    1.0000 </r>
       <r>    1.9700    1.0000 </r>
       <r>    2.0821    1.0000 </r>
       <r>    2.1223    1.0000 </r>
       <r>    2.1644    1.0000 </r>
       <r>    2.2118    1.0000 </r>
       <r>    2.2503    1.0000 </r>
       <r>    2.3015    1.0000 </r>
       <r>    2.3475    1.0000 </r>
       <r>    2.3889    1.0000 </r>
       <r>    2.4429    1.0000 </r>
       <r>    2.5087    1.0000 </r>
       <r>    2.5496    1.0000 </r>
       <r>    2.5752    1.0000 </r>
       <r>    2.6290    1.0000 </r>
       <r>    2.7213    1.0000 </r>
       <r>    2.7301    1.0000 </r>
       <r>    2.7590    1.0000 </r>
       <r>    2.9137    1.0000 </r>
       <r>    2.9862    1.0000 </r>
       <r>    3.1938    1.0000 </r>
       <r>    3.3351    1.0000 </r>
       <r>    3.5973    1.0000 </r>
       <r>    3.8462    1.0000 </r>
       <r>    4.1228    1.0000 </r>
       <r>    4.4448    1.0000 </r>
       <r>    4.6818    1.0000 </r>
       <r>    4.8427    1.0000 </r>
       <r>    5.0872    1.0000 </r>
       <r>    5.1765    1.0000 </r>
       <r>    5.5911    1.0000 </r>
       <r>    5.9293    1.0000 </r>
       <r>    8.3806   -0.0000 </r>
       <r>    8.6178   -0.0000 </r>
       <r>    8.7341   -0.0000 </r>
       <r>    9.4824    0.0000 </r>
       <r>    9.7512    0.0000 </r>
       <r>   10.3959    0.0000 </r>
       <r>   10.7045    0.0000 </r>
       <r>   11.3009    0.0000 </r>
       <r>   11.3401    0.0000 </r>
       <r>   11.8224    0.0000 </r>
       <r>   12.3902    0.0000 </r>
       <r>   12.4705    0.0000 </r>
      </set>
      <set comment="kpoint 113">
       <r>   -6.4000    1.0000 </r>
       <r>   -6.3743    1.0000 </r>
       <r>   -6.3496    1.0000 </r>
       <r>   -6.2807    1.0000 </r>
       <r>    0.2845    1.0000 </r>
       <r>    0.3461    1.0000 </r>
       <r>    0.4236    1.0000 </r>
       <r>    0.6518    1.0000 </r>
       <r>    0.7898    1.0000 </r>
       <r>    0.8494    1.0000 </r>
       <r>    0.9475    1.0000 </r>
       <r>    1.0115    1.0000 </r>
       <r>    1.1758    1.0000 </r>
       <r>    1.2105    1.0000 </r>
       <r>    1.2809    1.0000 </r>
       <r>    1.3740    1.0000 </r>
       <r>    1.4729    1.0000 </r>
       <r>    1.5679    1.0000 </r>
       <r>    1.6068    1.0000 </r>
       <r>    1.6882    1.0000 </r>
       <r>    1.6982    1.0000 </r>
       <r>    1.7546    1.0000 </r>
       <r>    1.8315    1.0000 </r>
       <r>    1.8760    1.0000 </r>
       <r>    1.9475    1.0000 </r>
       <r>    1.9762    1.0000 </r>
       <r>    2.1159    1.0000 </r>
       <r>    2.1380    1.0000 </r>
       <r>    2.1775    1.0000 </r>
       <r>    2.2081    1.0000 </r>
       <r>    2.2502    1.0000 </r>
       <r>    2.2911    1.0000 </r>
       <r>    2.3362    1.0000 </r>
       <r>    2.3885    1.0000 </r>
       <r>    2.4583    1.0000 </r>
       <r>    2.4757    1.0000 </r>
       <r>    2.5199    1.0000 </r>
       <r>    2.5511    1.0000 </r>
       <r>    2.6184    1.0000 </r>
       <r>    2.6507    1.0000 </r>
       <r>    2.7208    1.0000 </r>
       <r>    2.7423    1.0000 </r>
       <r>    2.9272    1.0000 </r>
       <r>    2.9657    1.0000 </r>
       <r>    3.0896    1.0000 </r>
       <r>    3.2133    1.0000 </r>
       <r>    3.4362    1.0000 </r>
       <r>    3.6466    1.0000 </r>
       <r>    4.1254    1.0000 </r>
       <r>    4.4543    1.0000 </r>
       <r>    4.5734    1.0000 </r>
       <r>    4.8858    1.0000 </r>
       <r>    5.1045    1.0000 </r>
       <r>    5.2283    1.0000 </r>
       <r>    5.6853    1.0000 </r>
       <r>    5.9865    1.0000 </r>
       <r>    8.5281   -0.0000 </r>
       <r>    8.6884   -0.0000 </r>
       <r>    8.7806   -0.0000 </r>
       <r>    9.2401   -0.0000 </r>
       <r>    9.5613    0.0000 </r>
       <r>   10.4955    0.0000 </r>
       <r>   10.8169    0.0000 </r>
       <r>   11.0474    0.0000 </r>
       <r>   11.4209    0.0000 </r>
       <r>   11.7864    0.0000 </r>
       <r>   11.9231    0.0000 </r>
       <r>   12.3192    0.0000 </r>
      </set>
      <set comment="kpoint 114">
       <r>   -6.4245    1.0000 </r>
       <r>   -6.3603    1.0000 </r>
       <r>   -6.3423    1.0000 </r>
       <r>   -6.2778    1.0000 </r>
       <r>    0.2498    1.0000 </r>
       <r>    0.3535    1.0000 </r>
       <r>    0.4578    1.0000 </r>
       <r>    0.6309    1.0000 </r>
       <r>    0.8173    1.0000 </r>
       <r>    0.8740    1.0000 </r>
       <r>    0.9288    1.0000 </r>
       <r>    1.0488    1.0000 </r>
       <r>    1.1398    1.0000 </r>
       <r>    1.2104    1.0000 </r>
       <r>    1.2774    1.0000 </r>
       <r>    1.4230    1.0000 </r>
       <r>    1.5097    1.0000 </r>
       <r>    1.5664    1.0000 </r>
       <r>    1.6035    1.0000 </r>
       <r>    1.6652    1.0000 </r>
       <r>    1.7086    1.0000 </r>
       <r>    1.7655    1.0000 </r>
       <r>    1.8103    1.0000 </r>
       <r>    1.8988    1.0000 </r>
       <r>    1.9327    1.0000 </r>
       <r>    1.9962    1.0000 </r>
       <r>    2.1146    1.0000 </r>
       <r>    2.1460    1.0000 </r>
       <r>    2.1845    1.0000 </r>
       <r>    2.2315    1.0000 </r>
       <r>    2.2759    1.0000 </r>
       <r>    2.2998    1.0000 </r>
       <r>    2.3341    1.0000 </r>
       <r>    2.3924    1.0000 </r>
       <r>    2.4393    1.0000 </r>
       <r>    2.4765    1.0000 </r>
       <r>    2.4931    1.0000 </r>
       <r>    2.5523    1.0000 </r>
       <r>    2.6026    1.0000 </r>
       <r>    2.6499    1.0000 </r>
       <r>    2.7170    1.0000 </r>
       <r>    2.8034    1.0000 </r>
       <r>    2.8479    1.0000 </r>
       <r>    2.9456    1.0000 </r>
       <r>    3.0060    1.0000 </r>
       <r>    3.2063    1.0000 </r>
       <r>    3.3943    1.0000 </r>
       <r>    3.5970    1.0000 </r>
       <r>    4.0790    1.0000 </r>
       <r>    4.1418    1.0000 </r>
       <r>    4.7382    1.0000 </r>
       <r>    4.9109    1.0000 </r>
       <r>    5.1457    1.0000 </r>
       <r>    5.3069    1.0000 </r>
       <r>    5.8207    1.0000 </r>
       <r>    6.0433    1.0000 </r>
       <r>    8.6456   -0.0000 </r>
       <r>    8.8357   -0.0000 </r>
       <r>    9.0355   -0.0000 </r>
       <r>    9.2389   -0.0000 </r>
       <r>    9.4824    0.0000 </r>
       <r>   10.3843    0.0000 </r>
       <r>   10.5733    0.0000 </r>
       <r>   10.9199    0.0000 </r>
       <r>   11.2588    0.0000 </r>
       <r>   11.6333    0.0000 </r>
       <r>   11.8835    0.0000 </r>
       <r>   12.2040    0.0000 </r>
      </set>
      <set comment="kpoint 115">
       <r>   -6.5027    1.0000 </r>
       <r>   -6.3548    1.0000 </r>
       <r>   -6.3410    1.0000 </r>
       <r>   -6.2801    1.0000 </r>
       <r>    0.2386    1.0000 </r>
       <r>    0.3519    1.0000 </r>
       <r>    0.4979    1.0000 </r>
       <r>    0.6091    1.0000 </r>
       <r>    0.7935    1.0000 </r>
       <r>    0.8428    1.0000 </r>
       <r>    0.9449    1.0000 </r>
       <r>    1.0743    1.0000 </r>
       <r>    1.1238    1.0000 </r>
       <r>    1.2107    1.0000 </r>
       <r>    1.2933    1.0000 </r>
       <r>    1.4198    1.0000 </r>
       <r>    1.4967    1.0000 </r>
       <r>    1.5312    1.0000 </r>
       <r>    1.6003    1.0000 </r>
       <r>    1.6429    1.0000 </r>
       <r>    1.6805    1.0000 </r>
       <r>    1.7346    1.0000 </r>
       <r>    1.7914    1.0000 </r>
       <r>    1.8906    1.0000 </r>
       <r>    1.9311    1.0000 </r>
       <r>    2.0106    1.0000 </r>
       <r>    2.0837    1.0000 </r>
       <r>    2.1307    1.0000 </r>
       <r>    2.1855    1.0000 </r>
       <r>    2.2593    1.0000 </r>
       <r>    2.2955    1.0000 </r>
       <r>    2.3246    1.0000 </r>
       <r>    2.3674    1.0000 </r>
       <r>    2.3832    1.0000 </r>
       <r>    2.4449    1.0000 </r>
       <r>    2.4766    1.0000 </r>
       <r>    2.5127    1.0000 </r>
       <r>    2.5712    1.0000 </r>
       <r>    2.6079    1.0000 </r>
       <r>    2.6270    1.0000 </r>
       <r>    2.7144    1.0000 </r>
       <r>    2.7731    1.0000 </r>
       <r>    2.8672    1.0000 </r>
       <r>    2.9549    1.0000 </r>
       <r>    3.1186    1.0000 </r>
       <r>    3.2186    1.0000 </r>
       <r>    3.4308    1.0000 </r>
       <r>    3.6586    1.0000 </r>
       <r>    3.8515    1.0000 </r>
       <r>    4.2614    1.0000 </r>
       <r>    4.7107    1.0000 </r>
       <r>    5.0567    1.0000 </r>
       <r>    5.2572    1.0000 </r>
       <r>    5.3531    1.0000 </r>
       <r>    5.6758    1.0000 </r>
       <r>    6.1733    1.0000 </r>
       <r>    8.5699   -0.0000 </r>
       <r>    9.1296   -0.0000 </r>
       <r>    9.2635   -0.0000 </r>
       <r>    9.4184    0.0000 </r>
       <r>    9.7213    0.0000 </r>
       <r>   10.0416    0.0000 </r>
       <r>   10.3833    0.0000 </r>
       <r>   10.7359    0.0000 </r>
       <r>   11.1591    0.0000 </r>
       <r>   11.6052    0.0000 </r>
       <r>   11.8518    0.0000 </r>
       <r>   12.2703    0.0000 </r>
      </set>
      <set comment="kpoint 116">
       <r>   -6.5888    1.0000 </r>
       <r>   -6.3781    1.0000 </r>
       <r>   -6.3589    1.0000 </r>
       <r>   -6.2813    1.0000 </r>
       <r>    0.2483    1.0000 </r>
       <r>    0.3397    1.0000 </r>
       <r>    0.4896    1.0000 </r>
       <r>    0.5939    1.0000 </r>
       <r>    0.7154    1.0000 </r>
       <r>    0.8396    1.0000 </r>
       <r>    0.9656    1.0000 </r>
       <r>    1.0646    1.0000 </r>
       <r>    1.1241    1.0000 </r>
       <r>    1.2199    1.0000 </r>
       <r>    1.2740    1.0000 </r>
       <r>    1.3484    1.0000 </r>
       <r>    1.4335    1.0000 </r>
       <r>    1.5224    1.0000 </r>
       <r>    1.5779    1.0000 </r>
       <r>    1.6017    1.0000 </r>
       <r>    1.7016    1.0000 </r>
       <r>    1.7284    1.0000 </r>
       <r>    1.7771    1.0000 </r>
       <r>    1.8741    1.0000 </r>
       <r>    1.9246    1.0000 </r>
       <r>    2.0109    1.0000 </r>
       <r>    2.0655    1.0000 </r>
       <r>    2.1217    1.0000 </r>
       <r>    2.1865    1.0000 </r>
       <r>    2.2359    1.0000 </r>
       <r>    2.2936    1.0000 </r>
       <r>    2.3512    1.0000 </r>
       <r>    2.3735    1.0000 </r>
       <r>    2.3986    1.0000 </r>
       <r>    2.4469    1.0000 </r>
       <r>    2.5025    1.0000 </r>
       <r>    2.5501    1.0000 </r>
       <r>    2.5691    1.0000 </r>
       <r>    2.6221    1.0000 </r>
       <r>    2.6607    1.0000 </r>
       <r>    2.7229    1.0000 </r>
       <r>    2.7979    1.0000 </r>
       <r>    2.9050    1.0000 </r>
       <r>    2.9534    1.0000 </r>
       <r>    3.2237    1.0000 </r>
       <r>    3.3475    1.0000 </r>
       <r>    3.5059    1.0000 </r>
       <r>    3.6326    1.0000 </r>
       <r>    4.0133    1.0000 </r>
       <r>    4.4979    1.0000 </r>
       <r>    4.6769    1.0000 </r>
       <r>    5.0828    1.0000 </r>
       <r>    5.3018    1.0000 </r>
       <r>    5.3921    1.0000 </r>
       <r>    5.5758    1.0000 </r>
       <r>    6.2099    1.0000 </r>
       <r>    8.4491   -0.0000 </r>
       <r>    9.2840    0.0000 </r>
       <r>    9.4278    0.0000 </r>
       <r>    9.5987    0.0000 </r>
       <r>    9.7572    0.0000 </r>
       <r>    9.8919    0.0000 </r>
       <r>   10.5698    0.0000 </r>
       <r>   10.7146    0.0000 </r>
       <r>   11.1498    0.0000 </r>
       <r>   11.6093    0.0000 </r>
       <r>   12.0333    0.0000 </r>
       <r>   12.4902    0.0000 </r>
      </set>
      <set comment="kpoint 117">
       <r>   -6.6671    1.0000 </r>
       <r>   -6.4118    1.0000 </r>
       <r>   -6.3934    1.0000 </r>
       <r>   -6.2873    1.0000 </r>
       <r>    0.2390    1.0000 </r>
       <r>    0.3303    1.0000 </r>
       <r>    0.4804    1.0000 </r>
       <r>    0.5202    1.0000 </r>
       <r>    0.6924    1.0000 </r>
       <r>    0.8346    1.0000 </r>
       <r>    0.9760    1.0000 </r>
       <r>    1.0115    1.0000 </r>
       <r>    1.1053    1.0000 </r>
       <r>    1.1576    1.0000 </r>
       <r>    1.2364    1.0000 </r>
       <r>    1.3439    1.0000 </r>
       <r>    1.4001    1.0000 </r>
       <r>    1.5020    1.0000 </r>
       <r>    1.5286    1.0000 </r>
       <r>    1.5988    1.0000 </r>
       <r>    1.6876    1.0000 </r>
       <r>    1.7506    1.0000 </r>
       <r>    1.8119    1.0000 </r>
       <r>    1.8788    1.0000 </r>
       <r>    1.9361    1.0000 </r>
       <r>    1.9667    1.0000 </r>
       <r>    2.0477    1.0000 </r>
       <r>    2.1327    1.0000 </r>
       <r>    2.1942    1.0000 </r>
       <r>    2.2440    1.0000 </r>
       <r>    2.3041    1.0000 </r>
       <r>    2.3638    1.0000 </r>
       <r>    2.3838    1.0000 </r>
       <r>    2.4211    1.0000 </r>
       <r>    2.4638    1.0000 </r>
       <r>    2.4956    1.0000 </r>
       <r>    2.5548    1.0000 </r>
       <r>    2.5987    1.0000 </r>
       <r>    2.6363    1.0000 </r>
       <r>    2.6850    1.0000 </r>
       <r>    2.7548    1.0000 </r>
       <r>    2.8553    1.0000 </r>
       <r>    2.9241    1.0000 </r>
       <r>    2.9454    1.0000 </r>
       <r>    3.1963    1.0000 </r>
       <r>    3.4346    1.0000 </r>
       <r>    3.6300    1.0000 </r>
       <r>    3.7864    1.0000 </r>
       <r>    4.3375    1.0000 </r>
       <r>    4.6536    1.0000 </r>
       <r>    4.7567    1.0000 </r>
       <r>    5.0674    1.0000 </r>
       <r>    5.2464    1.0000 </r>
       <r>    5.3961    1.0000 </r>
       <r>    5.7095    1.0000 </r>
       <r>    6.1803    1.0000 </r>
       <r>    8.2348   -0.0000 </r>
       <r>    8.9984   -0.0000 </r>
       <r>    9.2966    0.0000 </r>
       <r>    9.7669    0.0000 </r>
       <r>    9.8901    0.0000 </r>
       <r>   10.1589    0.0000 </r>
       <r>   10.5839    0.0000 </r>
       <r>   11.0009    0.0000 </r>
       <r>   11.3899    0.0000 </r>
       <r>   11.7473    0.0000 </r>
       <r>   12.2569    0.0000 </r>
       <r>   12.5375    0.0000 </r>
      </set>
      <set comment="kpoint 118">
       <r>   -6.7243    1.0000 </r>
       <r>   -6.4579    1.0000 </r>
       <r>   -6.4188    1.0000 </r>
       <r>   -6.3011    1.0000 </r>
       <r>    0.2030    1.0000 </r>
       <r>    0.3165    1.0000 </r>
       <r>    0.4476    1.0000 </r>
       <r>    0.4935    1.0000 </r>
       <r>    0.7094    1.0000 </r>
       <r>    0.7873    1.0000 </r>
       <r>    0.8985    1.0000 </r>
       <r>    0.9772    1.0000 </r>
       <r>    1.0793    1.0000 </r>
       <r>    1.1634    1.0000 </r>
       <r>    1.2143    1.0000 </r>
       <r>    1.3224    1.0000 </r>
       <r>    1.4056    1.0000 </r>
       <r>    1.4698    1.0000 </r>
       <r>    1.5294    1.0000 </r>
       <r>    1.5864    1.0000 </r>
       <r>    1.6852    1.0000 </r>
       <r>    1.7537    1.0000 </r>
       <r>    1.8536    1.0000 </r>
       <r>    1.8947    1.0000 </r>
       <r>    1.9281    1.0000 </r>
       <r>    1.9939    1.0000 </r>
       <r>    2.0300    1.0000 </r>
       <r>    2.1600    1.0000 </r>
       <r>    2.1965    1.0000 </r>
       <r>    2.2582    1.0000 </r>
       <r>    2.2923    1.0000 </r>
       <r>    2.3631    1.0000 </r>
       <r>    2.4004    1.0000 </r>
       <r>    2.4317    1.0000 </r>
       <r>    2.4873    1.0000 </r>
       <r>    2.5374    1.0000 </r>
       <r>    2.5615    1.0000 </r>
       <r>    2.6189    1.0000 </r>
       <r>    2.6498    1.0000 </r>
       <r>    2.7014    1.0000 </r>
       <r>    2.7842    1.0000 </r>
       <r>    2.8859    1.0000 </r>
       <r>    2.9175    1.0000 </r>
       <r>    2.9669    1.0000 </r>
       <r>    3.1431    1.0000 </r>
       <r>    3.4030    1.0000 </r>
       <r>    3.6076    1.0000 </r>
       <r>    4.1185    1.0000 </r>
       <r>    4.3790    1.0000 </r>
       <r>    4.7575    1.0000 </r>
       <r>    5.0329    1.0000 </r>
       <r>    5.1499    1.0000 </r>
       <r>    5.3675    1.0000 </r>
       <r>    5.5026    1.0000 </r>
       <r>    5.8386    1.0000 </r>
       <r>    6.1746    1.0000 </r>
       <r>    7.9535   -0.0000 </r>
       <r>    8.5471   -0.0000 </r>
       <r>    8.9387   -0.0000 </r>
       <r>    9.5927    0.0000 </r>
       <r>   10.2304    0.0000 </r>
       <r>   10.6640    0.0000 </r>
       <r>   10.8276    0.0000 </r>
       <r>   11.0019    0.0000 </r>
       <r>   11.5787    0.0000 </r>
       <r>   11.9796    0.0000 </r>
       <r>   12.1696    0.0000 </r>
       <r>   12.3292    0.0000 </r>
      </set>
      <set comment="kpoint 119">
       <r>   -6.7510    1.0000 </r>
       <r>   -6.5058    1.0000 </r>
       <r>   -6.4277    1.0000 </r>
       <r>   -6.3191    1.0000 </r>
       <r>    0.1719    1.0000 </r>
       <r>    0.2876    1.0000 </r>
       <r>    0.4412    1.0000 </r>
       <r>    0.4965    1.0000 </r>
       <r>    0.6957    1.0000 </r>
       <r>    0.7652    1.0000 </r>
       <r>    0.8140    1.0000 </r>
       <r>    0.9513    1.0000 </r>
       <r>    1.0791    1.0000 </r>
       <r>    1.1789    1.0000 </r>
       <r>    1.2141    1.0000 </r>
       <r>    1.3006    1.0000 </r>
       <r>    1.3977    1.0000 </r>
       <r>    1.4567    1.0000 </r>
       <r>    1.5678    1.0000 </r>
       <r>    1.6031    1.0000 </r>
       <r>    1.6702    1.0000 </r>
       <r>    1.7512    1.0000 </r>
       <r>    1.8591    1.0000 </r>
       <r>    1.9059    1.0000 </r>
       <r>    1.9570    1.0000 </r>
       <r>    2.0045    1.0000 </r>
       <r>    2.0673    1.0000 </r>
       <r>    2.1505    1.0000 </r>
       <r>    2.2187    1.0000 </r>
       <r>    2.2323    1.0000 </r>
       <r>    2.2899    1.0000 </r>
       <r>    2.3340    1.0000 </r>
       <r>    2.4200    1.0000 </r>
       <r>    2.4506    1.0000 </r>
       <r>    2.4918    1.0000 </r>
       <r>    2.5378    1.0000 </r>
       <r>    2.6206    1.0000 </r>
       <r>    2.6404    1.0000 </r>
       <r>    2.6606    1.0000 </r>
       <r>    2.7202    1.0000 </r>
       <r>    2.8085    1.0000 </r>
       <r>    2.8744    1.0000 </r>
       <r>    2.9123    1.0000 </r>
       <r>    3.0115    1.0000 </r>
       <r>    3.1037    1.0000 </r>
       <r>    3.3470    1.0000 </r>
       <r>    3.5349    1.0000 </r>
       <r>    4.0015    1.0000 </r>
       <r>    4.6692    1.0000 </r>
       <r>    4.8830    1.0000 </r>
       <r>    4.9917    1.0000 </r>
       <r>    5.3678    1.0000 </r>
       <r>    5.5485    1.0000 </r>
       <r>    5.8052    1.0000 </r>
       <r>    5.9943    1.0000 </r>
       <r>    6.2622    1.0002 </r>
       <r>    7.7014   -0.0000 </r>
       <r>    8.0940   -0.0000 </r>
       <r>    8.6069   -0.0000 </r>
       <r>    9.2371   -0.0000 </r>
       <r>   10.5135    0.0000 </r>
       <r>   10.8337    0.0000 </r>
       <r>   11.1768    0.0000 </r>
       <r>   11.2646    0.0000 </r>
       <r>   11.3806    0.0000 </r>
       <r>   11.9995    0.0000 </r>
       <r>   12.1631    0.0000 </r>
       <r>   12.4707    0.0000 </r>
      </set>
      <set comment="kpoint 120">
       <r>   -6.6417    1.0000 </r>
       <r>   -6.5270    1.0000 </r>
       <r>   -6.4753    1.0000 </r>
       <r>   -6.4023    1.0000 </r>
       <r>    0.2210    1.0000 </r>
       <r>    0.2627    1.0000 </r>
       <r>    0.4065    1.0000 </r>
       <r>    0.4719    1.0000 </r>
       <r>    0.6246    1.0000 </r>
       <r>    0.6531    1.0000 </r>
       <r>    0.8925    1.0000 </r>
       <r>    0.9490    1.0000 </r>
       <r>    1.0512    1.0000 </r>
       <r>    1.0917    1.0000 </r>
       <r>    1.2066    1.0000 </r>
       <r>    1.2568    1.0000 </r>
       <r>    1.3855    1.0000 </r>
       <r>    1.4329    1.0000 </r>
       <r>    1.6265    1.0000 </r>
       <r>    1.6393    1.0000 </r>
       <r>    1.7180    1.0000 </r>
       <r>    1.7713    1.0000 </r>
       <r>    1.8277    1.0000 </r>
       <r>    1.8759    1.0000 </r>
       <r>    2.0125    1.0000 </r>
       <r>    2.0421    1.0000 </r>
       <r>    2.0757    1.0000 </r>
       <r>    2.1582    1.0000 </r>
       <r>    2.2339    1.0000 </r>
       <r>    2.2611    1.0000 </r>
       <r>    2.2967    1.0000 </r>
       <r>    2.3358    1.0000 </r>
       <r>    2.3832    1.0000 </r>
       <r>    2.4538    1.0000 </r>
       <r>    2.5035    1.0000 </r>
       <r>    2.5369    1.0000 </r>
       <r>    2.6030    1.0000 </r>
       <r>    2.6314    1.0000 </r>
       <r>    2.7034    1.0000 </r>
       <r>    2.7132    1.0000 </r>
       <r>    2.8619    1.0000 </r>
       <r>    2.8820    1.0000 </r>
       <r>    2.9120    1.0000 </r>
       <r>    2.9476    1.0000 </r>
       <r>    3.1453    1.0000 </r>
       <r>    3.2220    1.0000 </r>
       <r>    3.7167    1.0000 </r>
       <r>    3.8879    1.0000 </r>
       <r>    4.9366    1.0000 </r>
       <r>    5.0075    1.0000 </r>
       <r>    5.2768    1.0000 </r>
       <r>    5.3482    1.0000 </r>
       <r>    5.6942    1.0000 </r>
       <r>    5.7565    1.0000 </r>
       <r>    6.1166    1.0000 </r>
       <r>    6.2026    1.0000 </r>
       <r>    7.9222   -0.0000 </r>
       <r>    8.0974   -0.0000 </r>
       <r>    8.3168   -0.0000 </r>
       <r>    8.5636   -0.0000 </r>
       <r>   10.6446    0.0000 </r>
       <r>   10.7924    0.0000 </r>
       <r>   11.0599    0.0000 </r>
       <r>   11.1482    0.0000 </r>
       <r>   11.4902    0.0000 </r>
       <r>   11.6619    0.0000 </r>
       <r>   11.9428    0.0000 </r>
       <r>   12.0857    0.0000 </r>
      </set>
      <set comment="kpoint 121">
       <r>   -6.6064    1.0000 </r>
       <r>   -6.5026    1.0000 </r>
       <r>   -6.4873    1.0000 </r>
       <r>   -6.4160    1.0000 </r>
       <r>    0.2514    1.0000 </r>
       <r>    0.2959    1.0000 </r>
       <r>    0.4344    1.0000 </r>
       <r>    0.4894    1.0000 </r>
       <r>    0.6012    1.0000 </r>
       <r>    0.6332    1.0000 </r>
       <r>    0.8835    1.0000 </r>
       <r>    0.9709    1.0000 </r>
       <r>    1.0539    1.0000 </r>
       <r>    1.0910    1.0000 </r>
       <r>    1.2272    1.0000 </r>
       <r>    1.2595    1.0000 </r>
       <r>    1.3648    1.0000 </r>
       <r>    1.4077    1.0000 </r>
       <r>    1.6190    1.0000 </r>
       <r>    1.6631    1.0000 </r>
       <r>    1.6941    1.0000 </r>
       <r>    1.7213    1.0000 </r>
       <r>    1.8098    1.0000 </r>
       <r>    1.8758    1.0000 </r>
       <r>    2.0049    1.0000 </r>
       <r>    2.0452    1.0000 </r>
       <r>    2.0908    1.0000 </r>
       <r>    2.1207    1.0000 </r>
       <r>    2.2408    1.0000 </r>
       <r>    2.2546    1.0000 </r>
       <r>    2.3031    1.0000 </r>
       <r>    2.3599    1.0000 </r>
       <r>    2.3778    1.0000 </r>
       <r>    2.4400    1.0000 </r>
       <r>    2.4955    1.0000 </r>
       <r>    2.5438    1.0000 </r>
       <r>    2.6086    1.0000 </r>
       <r>    2.6378    1.0000 </r>
       <r>    2.7101    1.0000 </r>
       <r>    2.7387    1.0000 </r>
       <r>    2.8315    1.0000 </r>
       <r>    2.8680    1.0000 </r>
       <r>    2.9286    1.0000 </r>
       <r>    2.9636    1.0000 </r>
       <r>    3.1929    1.0000 </r>
       <r>    3.2640    1.0000 </r>
       <r>    3.7558    1.0000 </r>
       <r>    3.9030    1.0000 </r>
       <r>    4.8472    1.0000 </r>
       <r>    4.8937    1.0000 </r>
       <r>    5.1963    1.0000 </r>
       <r>    5.3419    1.0000 </r>
       <r>    5.5333    1.0000 </r>
       <r>    5.7289    1.0000 </r>
       <r>    6.0059    1.0000 </r>
       <r>    6.0719    1.0000 </r>
       <r>    8.1183   -0.0000 </r>
       <r>    8.3478   -0.0000 </r>
       <r>    8.5383   -0.0000 </r>
       <r>    8.8652   -0.0000 </r>
       <r>   10.4446    0.0000 </r>
       <r>   10.5567    0.0000 </r>
       <r>   10.9824    0.0000 </r>
       <r>   11.1542    0.0000 </r>
       <r>   11.2976    0.0000 </r>
       <r>   11.4107    0.0000 </r>
       <r>   11.7324    0.0000 </r>
       <r>   12.0513    0.0000 </r>
      </set>
      <set comment="kpoint 122">
       <r>   -6.5516    1.0000 </r>
       <r>   -6.4920    1.0000 </r>
       <r>   -6.4528    1.0000 </r>
       <r>   -6.4151    1.0000 </r>
       <r>    0.2807    1.0000 </r>
       <r>    0.3287    1.0000 </r>
       <r>    0.4746    1.0000 </r>
       <r>    0.5236    1.0000 </r>
       <r>    0.6401    1.0000 </r>
       <r>    0.6653    1.0000 </r>
       <r>    0.8791    1.0000 </r>
       <r>    0.9739    1.0000 </r>
       <r>    1.0539    1.0000 </r>
       <r>    1.0857    1.0000 </r>
       <r>    1.2532    1.0000 </r>
       <r>    1.2886    1.0000 </r>
       <r>    1.3424    1.0000 </r>
       <r>    1.3800    1.0000 </r>
       <r>    1.5571    1.0000 </r>
       <r>    1.6096    1.0000 </r>
       <r>    1.6635    1.0000 </r>
       <r>    1.7097    1.0000 </r>
       <r>    1.8077    1.0000 </r>
       <r>    1.8713    1.0000 </r>
       <r>    1.9783    1.0000 </r>
       <r>    2.0232    1.0000 </r>
       <r>    2.1145    1.0000 </r>
       <r>    2.1303    1.0000 </r>
       <r>    2.2013    1.0000 </r>
       <r>    2.2352    1.0000 </r>
       <r>    2.3095    1.0000 </r>
       <r>    2.3400    1.0000 </r>
       <r>    2.4068    1.0000 </r>
       <r>    2.4613    1.0000 </r>
       <r>    2.4829    1.0000 </r>
       <r>    2.5213    1.0000 </r>
       <r>    2.6056    1.0000 </r>
       <r>    2.6235    1.0000 </r>
       <r>    2.7237    1.0000 </r>
       <r>    2.7485    1.0000 </r>
       <r>    2.7778    1.0000 </r>
       <r>    2.8278    1.0000 </r>
       <r>    2.9362    1.0000 </r>
       <r>    2.9668    1.0000 </r>
       <r>    3.3561    1.0000 </r>
       <r>    3.4389    1.0000 </r>
       <r>    3.8019    1.0000 </r>
       <r>    3.9488    1.0000 </r>
       <r>    4.6343    1.0000 </r>
       <r>    4.8015    1.0000 </r>
       <r>    4.8886    1.0000 </r>
       <r>    5.0914    1.0000 </r>
       <r>    5.4305    1.0000 </r>
       <r>    5.5727    1.0000 </r>
       <r>    5.8473    1.0000 </r>
       <r>    5.9368    1.0000 </r>
       <r>    8.4903   -0.0000 </r>
       <r>    8.7623   -0.0000 </r>
       <r>    8.9634   -0.0000 </r>
       <r>    9.3238    0.0000 </r>
       <r>    9.8276    0.0000 </r>
       <r>   10.0202    0.0000 </r>
       <r>   10.8857    0.0000 </r>
       <r>   10.9132    0.0000 </r>
       <r>   11.2236    0.0000 </r>
       <r>   11.4609    0.0000 </r>
       <r>   11.9324    0.0000 </r>
       <r>   12.2945    0.0000 </r>
      </set>
      <set comment="kpoint 123">
       <r>   -6.4945    1.0000 </r>
       <r>   -6.4637    1.0000 </r>
       <r>   -6.4160    1.0000 </r>
       <r>   -6.3911    1.0000 </r>
       <r>    0.3002    1.0000 </r>
       <r>    0.3388    1.0000 </r>
       <r>    0.5114    1.0000 </r>
       <r>    0.5616    1.0000 </r>
       <r>    0.6885    1.0000 </r>
       <r>    0.7437    1.0000 </r>
       <r>    0.9101    1.0000 </r>
       <r>    0.9768    1.0000 </r>
       <r>    1.0444    1.0000 </r>
       <r>    1.0629    1.0000 </r>
       <r>    1.2604    1.0000 </r>
       <r>    1.3159    1.0000 </r>
       <r>    1.3714    1.0000 </r>
       <r>    1.3956    1.0000 </r>
       <r>    1.5107    1.0000 </r>
       <r>    1.5449    1.0000 </r>
       <r>    1.6713    1.0000 </r>
       <r>    1.7161    1.0000 </r>
       <r>    1.8012    1.0000 </r>
       <r>    1.8600    1.0000 </r>
       <r>    1.9424    1.0000 </r>
       <r>    2.0074    1.0000 </r>
       <r>    2.1119    1.0000 </r>
       <r>    2.1453    1.0000 </r>
       <r>    2.1625    1.0000 </r>
       <r>    2.2143    1.0000 </r>
       <r>    2.2874    1.0000 </r>
       <r>    2.3035    1.0000 </r>
       <r>    2.3896    1.0000 </r>
       <r>    2.4575    1.0000 </r>
       <r>    2.4923    1.0000 </r>
       <r>    2.4989    1.0000 </r>
       <r>    2.5991    1.0000 </r>
       <r>    2.6340    1.0000 </r>
       <r>    2.7135    1.0000 </r>
       <r>    2.7349    1.0000 </r>
       <r>    2.7534    1.0000 </r>
       <r>    2.8073    1.0000 </r>
       <r>    2.9240    1.0000 </r>
       <r>    2.9645    1.0000 </r>
       <r>    3.5470    1.0000 </r>
       <r>    3.6225    1.0000 </r>
       <r>    3.7982    1.0000 </r>
       <r>    3.9189    1.0000 </r>
       <r>    4.4176    1.0000 </r>
       <r>    4.5091    1.0000 </r>
       <r>    4.7493    1.0000 </r>
       <r>    4.8648    1.0000 </r>
       <r>    5.2631    1.0000 </r>
       <r>    5.4121    1.0000 </r>
       <r>    5.7557    1.0000 </r>
       <r>    5.9389    1.0000 </r>
       <r>    8.6998   -0.0000 </r>
       <r>    9.0020   -0.0000 </r>
       <r>    9.2091   -0.0000 </r>
       <r>    9.3156    0.0000 </r>
       <r>    9.6076    0.0000 </r>
       <r>    9.6954    0.0000 </r>
       <r>   10.7601    0.0000 </r>
       <r>   10.9017    0.0000 </r>
       <r>   11.3437    0.0000 </r>
       <r>   11.6454    0.0000 </r>
       <r>   12.2936    0.0000 </r>
       <r>   12.6077    0.0000 </r>
      </set>
      <set comment="kpoint 124">
       <r>   -6.4521    1.0000 </r>
       <r>   -6.4122    1.0000 </r>
       <r>   -6.3900    1.0000 </r>
       <r>   -6.3527    1.0000 </r>
       <r>    0.3120    1.0000 </r>
       <r>    0.3291    1.0000 </r>
       <r>    0.5401    1.0000 </r>
       <r>    0.5950    1.0000 </r>
       <r>    0.6737    1.0000 </r>
       <r>    0.7608    1.0000 </r>
       <r>    0.9857    1.0000 </r>
       <r>    1.0066    1.0000 </r>
       <r>    1.0602    1.0000 </r>
       <r>    1.1168    1.0000 </r>
       <r>    1.2590    1.0000 </r>
       <r>    1.3322    1.0000 </r>
       <r>    1.3975    1.0000 </r>
       <r>    1.4442    1.0000 </r>
       <r>    1.5123    1.0000 </r>
       <r>    1.5541    1.0000 </r>
       <r>    1.6998    1.0000 </r>
       <r>    1.7339    1.0000 </r>
       <r>    1.8041    1.0000 </r>
       <r>    1.8612    1.0000 </r>
       <r>    1.9101    1.0000 </r>
       <r>    1.9971    1.0000 </r>
       <r>    2.0858    1.0000 </r>
       <r>    2.1315    1.0000 </r>
       <r>    2.1739    1.0000 </r>
       <r>    2.2082    1.0000 </r>
       <r>    2.2375    1.0000 </r>
       <r>    2.2746    1.0000 </r>
       <r>    2.3596    1.0000 </r>
       <r>    2.4105    1.0000 </r>
       <r>    2.4689    1.0000 </r>
       <r>    2.5023    1.0000 </r>
       <r>    2.6003    1.0000 </r>
       <r>    2.6219    1.0000 </r>
       <r>    2.6777    1.0000 </r>
       <r>    2.7349    1.0000 </r>
       <r>    2.7499    1.0000 </r>
       <r>    2.7877    1.0000 </r>
       <r>    2.9224    1.0000 </r>
       <r>    2.9673    1.0000 </r>
       <r>    3.4123    1.0000 </r>
       <r>    3.5131    1.0000 </r>
       <r>    3.8480    1.0000 </r>
       <r>    3.9021    1.0000 </r>
       <r>    4.2656    1.0000 </r>
       <r>    4.4001    1.0000 </r>
       <r>    4.7318    1.0000 </r>
       <r>    4.8342    1.0000 </r>
       <r>    5.0756    1.0000 </r>
       <r>    5.2445    1.0000 </r>
       <r>    5.7587    1.0000 </r>
       <r>    5.9552    1.0000 </r>
       <r>    8.6471   -0.0000 </r>
       <r>    8.7498   -0.0000 </r>
       <r>    9.0335   -0.0000 </r>
       <r>    9.1295   -0.0000 </r>
       <r>    9.7779    0.0000 </r>
       <r>    9.9619    0.0000 </r>
       <r>   10.8485    0.0000 </r>
       <r>   11.0455    0.0000 </r>
       <r>   11.4903    0.0000 </r>
       <r>   11.8031    0.0000 </r>
       <r>   12.5335    0.0000 </r>
       <r>   12.7396    0.0000 </r>
      </set>
      <set comment="kpoint 125">
       <r>   -6.4120    1.0000 </r>
       <r>   -6.3736    1.0000 </r>
       <r>   -6.3625    1.0000 </r>
       <r>   -6.3259    1.0000 </r>
       <r>    0.3063    1.0000 </r>
       <r>    0.3184    1.0000 </r>
       <r>    0.5109    1.0000 </r>
       <r>    0.5952    1.0000 </r>
       <r>    0.7164    1.0000 </r>
       <r>    0.7518    1.0000 </r>
       <r>    1.0026    1.0000 </r>
       <r>    1.0463    1.0000 </r>
       <r>    1.1215    1.0000 </r>
       <r>    1.1982    1.0000 </r>
       <r>    1.2919    1.0000 </r>
       <r>    1.3283    1.0000 </r>
       <r>    1.4347    1.0000 </r>
       <r>    1.4880    1.0000 </r>
       <r>    1.5835    1.0000 </r>
       <r>    1.5926    1.0000 </r>
       <r>    1.7100    1.0000 </r>
       <r>    1.7337    1.0000 </r>
       <r>    1.8312    1.0000 </r>
       <r>    1.8825    1.0000 </r>
       <r>    1.9046    1.0000 </r>
       <r>    1.9653    1.0000 </r>
       <r>    2.1008    1.0000 </r>
       <r>    2.1333    1.0000 </r>
       <r>    2.1756    1.0000 </r>
       <r>    2.1992    1.0000 </r>
       <r>    2.2401    1.0000 </r>
       <r>    2.2619    1.0000 </r>
       <r>    2.3507    1.0000 </r>
       <r>    2.3873    1.0000 </r>
       <r>    2.4445    1.0000 </r>
       <r>    2.4964    1.0000 </r>
       <r>    2.5380    1.0000 </r>
       <r>    2.5759    1.0000 </r>
       <r>    2.6655    1.0000 </r>
       <r>    2.7174    1.0000 </r>
       <r>    2.7447    1.0000 </r>
       <r>    2.7566    1.0000 </r>
       <r>    2.9237    1.0000 </r>
       <r>    2.9642    1.0000 </r>
       <r>    3.2155    1.0000 </r>
       <r>    3.2833    1.0000 </r>
       <r>    3.6349    1.0000 </r>
       <r>    3.7111    1.0000 </r>
       <r>    4.3386    1.0000 </r>
       <r>    4.5271    1.0000 </r>
       <r>    4.6676    1.0000 </r>
       <r>    4.8274    1.0000 </r>
       <r>    5.0429    1.0000 </r>
       <r>    5.2473    1.0000 </r>
       <r>    5.7448    1.0000 </r>
       <r>    5.9719    1.0000 </r>
       <r>    8.5407   -0.0000 </r>
       <r>    8.6814   -0.0000 </r>
       <r>    8.8994   -0.0000 </r>
       <r>    9.0040   -0.0000 </r>
       <r>    9.9093    0.0000 </r>
       <r>   10.1241    0.0000 </r>
       <r>   11.0018    0.0000 </r>
       <r>   11.1484    0.0000 </r>
       <r>   11.5218    0.0000 </r>
       <r>   11.8441    0.0000 </r>
       <r>   12.2807    0.0000 </r>
       <r>   12.4325    0.0000 </r>
      </set>
      <set comment="kpoint 126">
       <r>   -6.3790    1.0000 </r>
       <r>   -6.3660    1.0000 </r>
       <r>   -6.3424    1.0000 </r>
       <r>   -6.3115    1.0000 </r>
       <r>    0.2746    1.0000 </r>
       <r>    0.3021    1.0000 </r>
       <r>    0.4878    1.0000 </r>
       <r>    0.5869    1.0000 </r>
       <r>    0.7854    1.0000 </r>
       <r>    0.8079    1.0000 </r>
       <r>    1.0132    1.0000 </r>
       <r>    1.0359    1.0000 </r>
       <r>    1.1499    1.0000 </r>
       <r>    1.1959    1.0000 </r>
       <r>    1.3259    1.0000 </r>
       <r>    1.3891    1.0000 </r>
       <r>    1.4785    1.0000 </r>
       <r>    1.5291    1.0000 </r>
       <r>    1.6248    1.0000 </r>
       <r>    1.6584    1.0000 </r>
       <r>    1.7036    1.0000 </r>
       <r>    1.7233    1.0000 </r>
       <r>    1.8294    1.0000 </r>
       <r>    1.8510    1.0000 </r>
       <r>    1.9300    1.0000 </r>
       <r>    1.9498    1.0000 </r>
       <r>    2.1134    1.0000 </r>
       <r>    2.1850    1.0000 </r>
       <r>    2.1988    1.0000 </r>
       <r>    2.2125    1.0000 </r>
       <r>    2.2227    1.0000 </r>
       <r>    2.2779    1.0000 </r>
       <r>    2.3639    1.0000 </r>
       <r>    2.3979    1.0000 </r>
       <r>    2.4345    1.0000 </r>
       <r>    2.4597    1.0000 </r>
       <r>    2.5212    1.0000 </r>
       <r>    2.5496    1.0000 </r>
       <r>    2.6222    1.0000 </r>
       <r>    2.6599    1.0000 </r>
       <r>    2.7308    1.0000 </r>
       <r>    2.7422    1.0000 </r>
       <r>    2.9192    1.0000 </r>
       <r>    2.9400    1.0000 </r>
       <r>    3.0992    1.0000 </r>
       <r>    3.1320    1.0000 </r>
       <r>    3.4737    1.0000 </r>
       <r>    3.5478    1.0000 </r>
       <r>    4.1381    1.0000 </r>
       <r>    4.2609    1.0000 </r>
       <r>    4.8130    1.0000 </r>
       <r>    5.0196    1.0000 </r>
       <r>    5.1926    1.0000 </r>
       <r>    5.4175    1.0000 </r>
       <r>    5.6794    1.0000 </r>
       <r>    5.9711    1.0000 </r>
       <r>    8.5268   -0.0000 </r>
       <r>    8.7398   -0.0000 </r>
       <r>    8.9156   -0.0000 </r>
       <r>    9.1636   -0.0000 </r>
       <r>    9.8498    0.0000 </r>
       <r>   10.2406    0.0000 </r>
       <r>   11.0140    0.0000 </r>
       <r>   11.0535    0.0000 </r>
       <r>   11.4523    0.0000 </r>
       <r>   11.6372    0.0000 </r>
       <r>   11.8660    0.0000 </r>
       <r>   11.9987    0.0000 </r>
      </set>
      <set comment="kpoint 127">
       <r>   -6.3964    1.0000 </r>
       <r>   -6.3714    1.0000 </r>
       <r>   -6.3283    1.0000 </r>
       <r>   -6.3033    1.0000 </r>
       <r>    0.2348    1.0000 </r>
       <r>    0.2766    1.0000 </r>
       <r>    0.5223    1.0000 </r>
       <r>    0.5956    1.0000 </r>
       <r>    0.8313    1.0000 </r>
       <r>    0.8542    1.0000 </r>
       <r>    0.9765    1.0000 </r>
       <r>    1.0363    1.0000 </r>
       <r>    1.1626    1.0000 </r>
       <r>    1.2261    1.0000 </r>
       <r>    1.3096    1.0000 </r>
       <r>    1.4177    1.0000 </r>
       <r>    1.5135    1.0000 </r>
       <r>    1.5379    1.0000 </r>
       <r>    1.6334    1.0000 </r>
       <r>    1.6559    1.0000 </r>
       <r>    1.7006    1.0000 </r>
       <r>    1.7263    1.0000 </r>
       <r>    1.7849    1.0000 </r>
       <r>    1.8609    1.0000 </r>
       <r>    1.9404    1.0000 </r>
       <r>    1.9636    1.0000 </r>
       <r>    2.1063    1.0000 </r>
       <r>    2.1650    1.0000 </r>
       <r>    2.1982    1.0000 </r>
       <r>    2.2200    1.0000 </r>
       <r>    2.2714    1.0000 </r>
       <r>    2.3054    1.0000 </r>
       <r>    2.3695    1.0000 </r>
       <r>    2.3849    1.0000 </r>
       <r>    2.4432    1.0000 </r>
       <r>    2.4579    1.0000 </r>
       <r>    2.5183    1.0000 </r>
       <r>    2.5476    1.0000 </r>
       <r>    2.5789    1.0000 </r>
       <r>    2.6314    1.0000 </r>
       <r>    2.7206    1.0000 </r>
       <r>    2.7587    1.0000 </r>
       <r>    2.8772    1.0000 </r>
       <r>    2.9206    1.0000 </r>
       <r>    3.0631    1.0000 </r>
       <r>    3.1256    1.0000 </r>
       <r>    3.4464    1.0000 </r>
       <r>    3.5318    1.0000 </r>
       <r>    3.9442    1.0000 </r>
       <r>    3.9734    1.0000 </r>
       <r>    4.9906    1.0000 </r>
       <r>    5.1674    1.0000 </r>
       <r>    5.3231    1.0000 </r>
       <r>    5.4529    1.0000 </r>
       <r>    5.7402    1.0000 </r>
       <r>    5.9606    1.0000 </r>
       <r>    8.5975   -0.0000 </r>
       <r>    8.8230   -0.0000 </r>
       <r>    9.1490   -0.0000 </r>
       <r>    9.4807    0.0000 </r>
       <r>    9.8191    0.0000 </r>
       <r>   10.3502    0.0000 </r>
       <r>   10.6522    0.0000 </r>
       <r>   10.7991    0.0000 </r>
       <r>   11.0485    0.0000 </r>
       <r>   11.2802    0.0000 </r>
       <r>   11.7311    0.0000 </r>
       <r>   11.9399    0.0000 </r>
      </set>
      <set comment="kpoint 128">
       <r>   -6.4520    1.0000 </r>
       <r>   -6.3982    1.0000 </r>
       <r>   -6.3229    1.0000 </r>
       <r>   -6.3012    1.0000 </r>
       <r>    0.2162    1.0000 </r>
       <r>    0.2623    1.0000 </r>
       <r>    0.5571    1.0000 </r>
       <r>    0.6041    1.0000 </r>
       <r>    0.7919    1.0000 </r>
       <r>    0.8526    1.0000 </r>
       <r>    0.9819    1.0000 </r>
       <r>    1.0546    1.0000 </r>
       <r>    1.1613    1.0000 </r>
       <r>    1.2198    1.0000 </r>
       <r>    1.3091    1.0000 </r>
       <r>    1.4001    1.0000 </r>
       <r>    1.5072    1.0000 </r>
       <r>    1.5298    1.0000 </r>
       <r>    1.6113    1.0000 </r>
       <r>    1.6341    1.0000 </r>
       <r>    1.6765    1.0000 </r>
       <r>    1.6926    1.0000 </r>
       <r>    1.7909    1.0000 </r>
       <r>    1.8887    1.0000 </r>
       <r>    1.9211    1.0000 </r>
       <r>    1.9656    1.0000 </r>
       <r>    2.0865    1.0000 </r>
       <r>    2.1595    1.0000 </r>
       <r>    2.1965    1.0000 </r>
       <r>    2.2314    1.0000 </r>
       <r>    2.3005    1.0000 </r>
       <r>    2.3313    1.0000 </r>
       <r>    2.3680    1.0000 </r>
       <r>    2.3806    1.0000 </r>
       <r>    2.4206    1.0000 </r>
       <r>    2.4588    1.0000 </r>
       <r>    2.5109    1.0000 </r>
       <r>    2.5507    1.0000 </r>
       <r>    2.5812    1.0000 </r>
       <r>    2.6146    1.0000 </r>
       <r>    2.7235    1.0000 </r>
       <r>    2.7672    1.0000 </r>
       <r>    2.8758    1.0000 </r>
       <r>    2.9305    1.0000 </r>
       <r>    3.1281    1.0000 </r>
       <r>    3.1748    1.0000 </r>
       <r>    3.5290    1.0000 </r>
       <r>    3.6049    1.0000 </r>
       <r>    3.8404    1.0000 </r>
       <r>    4.0184    1.0000 </r>
       <r>    5.0065    1.0000 </r>
       <r>    5.2304    1.0000 </r>
       <r>    5.3463    1.0000 </r>
       <r>    5.4844    1.0000 </r>
       <r>    5.7400    1.0000 </r>
       <r>    6.0576    1.0000 </r>
       <r>    8.7291   -0.0000 </r>
       <r>    8.9923   -0.0000 </r>
       <r>    9.3191    0.0000 </r>
       <r>    9.6355    0.0000 </r>
       <r>    9.9642    0.0000 </r>
       <r>   10.2533    0.0000 </r>
       <r>   10.3463    0.0000 </r>
       <r>   10.5114    0.0000 </r>
       <r>   10.8449    0.0000 </r>
       <r>   11.0646    0.0000 </r>
       <r>   11.7741    0.0000 </r>
       <r>   12.1330    0.0000 </r>
      </set>
      <set comment="kpoint 129">
       <r>   -6.5188    1.0000 </r>
       <r>   -6.4416    1.0000 </r>
       <r>   -6.3369    1.0000 </r>
       <r>   -6.3073    1.0000 </r>
       <r>    0.2235    1.0000 </r>
       <r>    0.2657    1.0000 </r>
       <r>    0.5225    1.0000 </r>
       <r>    0.5752    1.0000 </r>
       <r>    0.7500    1.0000 </r>
       <r>    0.8510    1.0000 </r>
       <r>    0.9667    1.0000 </r>
       <r>    1.0563    1.0000 </r>
       <r>    1.1411    1.0000 </r>
       <r>    1.2007    1.0000 </r>
       <r>    1.3022    1.0000 </r>
       <r>    1.3551    1.0000 </r>
       <r>    1.4510    1.0000 </r>
       <r>    1.4947    1.0000 </r>
       <r>    1.5871    1.0000 </r>
       <r>    1.6166    1.0000 </r>
       <r>    1.6518    1.0000 </r>
       <r>    1.7079    1.0000 </r>
       <r>    1.8040    1.0000 </r>
       <r>    1.8799    1.0000 </r>
       <r>    1.9427    1.0000 </r>
       <r>    2.0025    1.0000 </r>
       <r>    2.0770    1.0000 </r>
       <r>    2.1095    1.0000 </r>
       <r>    2.1743    1.0000 </r>
       <r>    2.2040    1.0000 </r>
       <r>    2.2973    1.0000 </r>
       <r>    2.3430    1.0000 </r>
       <r>    2.3716    1.0000 </r>
       <r>    2.3731    1.0000 </r>
       <r>    2.4410    1.0000 </r>
       <r>    2.4743    1.0000 </r>
       <r>    2.5480    1.0000 </r>
       <r>    2.5670    1.0000 </r>
       <r>    2.6244    1.0000 </r>
       <r>    2.6469    1.0000 </r>
       <r>    2.7300    1.0000 </r>
       <r>    2.7807    1.0000 </r>
       <r>    2.9051    1.0000 </r>
       <r>    2.9354    1.0000 </r>
       <r>    3.1632    1.0000 </r>
       <r>    3.2289    1.0000 </r>
       <r>    3.6832    1.0000 </r>
       <r>    3.7203    1.0000 </r>
       <r>    4.0440    1.0000 </r>
       <r>    4.2613    1.0000 </r>
       <r>    4.9147    1.0000 </r>
       <r>    5.1527    1.0000 </r>
       <r>    5.3546    1.0000 </r>
       <r>    5.4687    1.0000 </r>
       <r>    5.8032    1.0000 </r>
       <r>    6.1196    1.0000 </r>
       <r>    8.8236   -0.0000 </r>
       <r>    9.1792   -0.0000 </r>
       <r>    9.3101    0.0000 </r>
       <r>    9.5217    0.0000 </r>
       <r>    9.7110    0.0000 </r>
       <r>   10.0119    0.0000 </r>
       <r>   10.3001    0.0000 </r>
       <r>   10.7478    0.0000 </r>
       <r>   10.9408    0.0000 </r>
       <r>   11.3810    0.0000 </r>
       <r>   11.9440    0.0000 </r>
       <r>   12.3013    0.0000 </r>
      </set>
      <set comment="kpoint 130">
       <r>   -6.5819    1.0000 </r>
       <r>   -6.4863    1.0000 </r>
       <r>   -6.3669    1.0000 </r>
       <r>   -6.3245    1.0000 </r>
       <r>    0.2351    1.0000 </r>
       <r>    0.2784    1.0000 </r>
       <r>    0.4648    1.0000 </r>
       <r>    0.4895    1.0000 </r>
       <r>    0.7420    1.0000 </r>
       <r>    0.8452    1.0000 </r>
       <r>    0.9557    1.0000 </r>
       <r>    1.0140    1.0000 </r>
       <r>    1.0981    1.0000 </r>
       <r>    1.1329    1.0000 </r>
       <r>    1.2605    1.0000 </r>
       <r>    1.3263    1.0000 </r>
       <r>    1.4098    1.0000 </r>
       <r>    1.4712    1.0000 </r>
       <r>    1.5627    1.0000 </r>
       <r>    1.5900    1.0000 </r>
       <r>    1.6866    1.0000 </r>
       <r>    1.7641    1.0000 </r>
       <r>    1.8034    1.0000 </r>
       <r>    1.8604    1.0000 </r>
       <r>    1.9577    1.0000 </r>
       <r>    2.0103    1.0000 </r>
       <r>    2.0608    1.0000 </r>
       <r>    2.1426    1.0000 </r>
       <r>    2.1795    1.0000 </r>
       <r>    2.2079    1.0000 </r>
       <r>    2.2926    1.0000 </r>
       <r>    2.3166    1.0000 </r>
       <r>    2.3796    1.0000 </r>
       <r>    2.3957    1.0000 </r>
       <r>    2.4635    1.0000 </r>
       <r>    2.4919    1.0000 </r>
       <r>    2.5722    1.0000 </r>
       <r>    2.6032    1.0000 </r>
       <r>    2.6294    1.0000 </r>
       <r>    2.6659    1.0000 </r>
       <r>    2.7700    1.0000 </r>
       <r>    2.8314    1.0000 </r>
       <r>    2.9306    1.0000 </r>
       <r>    2.9369    1.0000 </r>
       <r>    3.1605    1.0000 </r>
       <r>    3.2512    1.0000 </r>
       <r>    3.8755    1.0000 </r>
       <r>    3.9631    1.0000 </r>
       <r>    4.3113    1.0000 </r>
       <r>    4.4875    1.0000 </r>
       <r>    4.9596    1.0000 </r>
       <r>    5.1157    1.0000 </r>
       <r>    5.3110    1.0000 </r>
       <r>    5.4302    1.0000 </r>
       <r>    5.8792    1.0000 </r>
       <r>    6.1168    1.0000 </r>
       <r>    8.7002   -0.0000 </r>
       <r>    8.9725   -0.0000 </r>
       <r>    9.1185   -0.0000 </r>
       <r>    9.3219    0.0000 </r>
       <r>    9.7468    0.0000 </r>
       <r>   10.0487    0.0000 </r>
       <r>   10.5267    0.0000 </r>
       <r>   10.8197    0.0000 </r>
       <r>   11.4487    0.0000 </r>
       <r>   11.7308    0.0000 </r>
       <r>   12.1057    0.0000 </r>
       <r>   12.3306    0.0000 </r>
      </set>
      <set comment="kpoint 131">
       <r>   -6.6285    1.0000 </r>
       <r>   -6.5201    1.0000 </r>
       <r>   -6.4056    1.0000 </r>
       <r>   -6.3502    1.0000 </r>
       <r>    0.2280    1.0000 </r>
       <r>    0.2727    1.0000 </r>
       <r>    0.4201    1.0000 </r>
       <r>    0.4455    1.0000 </r>
       <r>    0.7337    1.0000 </r>
       <r>    0.8094    1.0000 </r>
       <r>    0.9212    1.0000 </r>
       <r>    0.9436    1.0000 </r>
       <r>    1.0573    1.0000 </r>
       <r>    1.0894    1.0000 </r>
       <r>    1.2368    1.0000 </r>
       <r>    1.3148    1.0000 </r>
       <r>    1.3853    1.0000 </r>
       <r>    1.4359    1.0000 </r>
       <r>    1.5682    1.0000 </r>
       <r>    1.5951    1.0000 </r>
       <r>    1.7310    1.0000 </r>
       <r>    1.7646    1.0000 </r>
       <r>    1.8272    1.0000 </r>
       <r>    1.8442    1.0000 </r>
       <r>    1.9788    1.0000 </r>
       <r>    2.0147    1.0000 </r>
       <r>    2.0837    1.0000 </r>
       <r>    2.1746    1.0000 </r>
       <r>    2.2179    1.0000 </r>
       <r>    2.2416    1.0000 </r>
       <r>    2.2881    1.0000 </r>
       <r>    2.3087    1.0000 </r>
       <r>    2.3824    1.0000 </r>
       <r>    2.4331    1.0000 </r>
       <r>    2.4830    1.0000 </r>
       <r>    2.5066    1.0000 </r>
       <r>    2.5680    1.0000 </r>
       <r>    2.6094    1.0000 </r>
       <r>    2.6498    1.0000 </r>
       <r>    2.6777    1.0000 </r>
       <r>    2.8039    1.0000 </r>
       <r>    2.8555    1.0000 </r>
       <r>    2.9356    1.0000 </r>
       <r>    2.9566    1.0000 </r>
       <r>    3.1544    1.0000 </r>
       <r>    3.2525    1.0000 </r>
       <r>    3.8707    1.0000 </r>
       <r>    4.1320    1.0000 </r>
       <r>    4.4974    1.0000 </r>
       <r>    4.7576    1.0000 </r>
       <r>    5.1749    1.0000 </r>
       <r>    5.2465    1.0000 </r>
       <r>    5.3748    1.0000 </r>
       <r>    5.4546    1.0000 </r>
       <r>    5.9103    1.0000 </r>
       <r>    6.0992    1.0000 </r>
       <r>    8.3647   -0.0000 </r>
       <r>    8.5812   -0.0000 </r>
       <r>    8.7714   -0.0000 </r>
       <r>    9.0345   -0.0000 </r>
       <r>   10.0795    0.0000 </r>
       <r>   10.3036    0.0000 </r>
       <r>   10.9111    0.0000 </r>
       <r>   10.9715    0.0000 </r>
       <r>   11.6442    0.0000 </r>
       <r>   11.9126    0.0000 </r>
       <r>   12.1723    0.0000 </r>
       <r>   12.1996    0.0000 </r>
      </set>
      <set comment="kpoint 132">
       <r>   -6.6497    1.0000 </r>
       <r>   -6.5347    1.0000 </r>
       <r>   -6.4445    1.0000 </r>
       <r>   -6.3784    1.0000 </r>
       <r>    0.2142    1.0000 </r>
       <r>    0.2538    1.0000 </r>
       <r>    0.4033    1.0000 </r>
       <r>    0.4542    1.0000 </r>
       <r>    0.6834    1.0000 </r>
       <r>    0.7250    1.0000 </r>
       <r>    0.8974    1.0000 </r>
       <r>    0.9289    1.0000 </r>
       <r>    1.0490    1.0000 </r>
       <r>    1.0879    1.0000 </r>
       <r>    1.2135    1.0000 </r>
       <r>    1.2866    1.0000 </r>
       <r>    1.3801    1.0000 </r>
       <r>    1.4315    1.0000 </r>
       <r>    1.5961    1.0000 </r>
       <r>    1.6137    1.0000 </r>
       <r>    1.7266    1.0000 </r>
       <r>    1.7743    1.0000 </r>
       <r>    1.8364    1.0000 </r>
       <r>    1.8651    1.0000 </r>
       <r>    2.0024    1.0000 </r>
       <r>    2.0199    1.0000 </r>
       <r>    2.1232    1.0000 </r>
       <r>    2.1697    1.0000 </r>
       <r>    2.2239    1.0000 </r>
       <r>    2.2580    1.0000 </r>
       <r>    2.2758    1.0000 </r>
       <r>    2.3237    1.0000 </r>
       <r>    2.3878    1.0000 </r>
       <r>    2.4776    1.0000 </r>
       <r>    2.4984    1.0000 </r>
       <r>    2.5056    1.0000 </r>
       <r>    2.5816    1.0000 </r>
       <r>    2.6124    1.0000 </r>
       <r>    2.6764    1.0000 </r>
       <r>    2.7005    1.0000 </r>
       <r>    2.8280    1.0000 </r>
       <r>    2.8670    1.0000 </r>
       <r>    2.9274    1.0000 </r>
       <r>    2.9692    1.0000 </r>
       <r>    3.1451    1.0000 </r>
       <r>    3.2333    1.0000 </r>
       <r>    3.7665    1.0000 </r>
       <r>    3.9860    1.0000 </r>
       <r>    4.8407    1.0000 </r>
       <r>    5.0518    1.0000 </r>
       <r>    5.1276    1.0000 </r>
       <r>    5.2897    1.0000 </r>
       <r>    5.6072    1.0000 </r>
       <r>    5.7380    1.0000 </r>
       <r>    5.9861    1.0000 </r>
       <r>    6.1369    1.0000 </r>
       <r>    8.0469   -0.0000 </r>
       <r>    8.2186   -0.0000 </r>
       <r>    8.4295   -0.0000 </r>
       <r>    8.6939   -0.0000 </r>
       <r>   10.4266    0.0000 </r>
       <r>   10.6368    0.0000 </r>
       <r>   11.0284    0.0000 </r>
       <r>   11.1606    0.0000 </r>
       <r>   11.6089    0.0000 </r>
       <r>   11.8896    0.0000 </r>
       <r>   12.1348    0.0000 </r>
       <r>   12.2513    0.0000 </r>
      </set>
      <set comment="kpoint 133">
       <r>   -6.7487    1.0000 </r>
       <r>   -6.7060    1.0000 </r>
       <r>   -6.3015    1.0000 </r>
       <r>   -6.2822    1.0000 </r>
       <r>    0.1215    1.0000 </r>
       <r>    0.2974    1.0000 </r>
       <r>    0.5317    1.0000 </r>
       <r>    0.5753    1.0000 </r>
       <r>    0.6519    1.0000 </r>
       <r>    0.7551    1.0000 </r>
       <r>    0.9171    1.0000 </r>
       <r>    0.9896    1.0000 </r>
       <r>    1.1410    1.0000 </r>
       <r>    1.2104    1.0000 </r>
       <r>    1.2783    1.0000 </r>
       <r>    1.3978    1.0000 </r>
       <r>    1.4396    1.0000 </r>
       <r>    1.4826    1.0000 </r>
       <r>    1.5554    1.0000 </r>
       <r>    1.5815    1.0000 </r>
       <r>    1.6594    1.0000 </r>
       <r>    1.7131    1.0000 </r>
       <r>    1.7997    1.0000 </r>
       <r>    1.8256    1.0000 </r>
       <r>    1.9184    1.0000 </r>
       <r>    1.9906    1.0000 </r>
       <r>    1.9925    1.0000 </r>
       <r>    2.0617    1.0000 </r>
       <r>    2.1350    1.0000 </r>
       <r>    2.2448    1.0000 </r>
       <r>    2.2668    1.0000 </r>
       <r>    2.3521    1.0000 </r>
       <r>    2.3771    1.0000 </r>
       <r>    2.4269    1.0000 </r>
       <r>    2.4880    1.0000 </r>
       <r>    2.5461    1.0000 </r>
       <r>    2.6486    1.0000 </r>
       <r>    2.6894    1.0000 </r>
       <r>    2.7066    1.0000 </r>
       <r>    2.7963    1.0000 </r>
       <r>    2.8361    1.0000 </r>
       <r>    2.8466    1.0000 </r>
       <r>    3.0341    1.0000 </r>
       <r>    3.0566    1.0000 </r>
       <r>    3.1956    1.0000 </r>
       <r>    3.3841    1.0000 </r>
       <r>    3.3983    1.0000 </r>
       <r>    3.6787    1.0000 </r>
       <r>    4.3592    1.0000 </r>
       <r>    4.5557    1.0000 </r>
       <r>    4.8687    1.0000 </r>
       <r>    5.2950    1.0000 </r>
       <r>    5.7476    1.0000 </r>
       <r>    5.9392    1.0000 </r>
       <r>    6.2871    1.0007 </r>
       <r>    6.3414    1.0064 </r>
       <r>    7.7472   -0.0000 </r>
       <r>    7.8621   -0.0000 </r>
       <r>    9.0560   -0.0000 </r>
       <r>    9.5181    0.0000 </r>
       <r>   10.5245    0.0000 </r>
       <r>   10.8161    0.0000 </r>
       <r>   10.9670    0.0000 </r>
       <r>   11.2531    0.0000 </r>
       <r>   11.6786    0.0000 </r>
       <r>   11.9063    0.0000 </r>
       <r>   12.1297    0.0000 </r>
       <r>   12.2262    0.0000 </r>
      </set>
      <set comment="kpoint 134">
       <r>   -6.7518    1.0000 </r>
       <r>   -6.6725    1.0000 </r>
       <r>   -6.3048    1.0000 </r>
       <r>   -6.2740    1.0000 </r>
       <r>    0.1435    1.0000 </r>
       <r>    0.3241    1.0000 </r>
       <r>    0.5216    1.0000 </r>
       <r>    0.5624    1.0000 </r>
       <r>    0.6712    1.0000 </r>
       <r>    0.7363    1.0000 </r>
       <r>    0.9093    1.0000 </r>
       <r>    1.0057    1.0000 </r>
       <r>    1.1741    1.0000 </r>
       <r>    1.1940    1.0000 </r>
       <r>    1.2936    1.0000 </r>
       <r>    1.3740    1.0000 </r>
       <r>    1.4434    1.0000 </r>
       <r>    1.4648    1.0000 </r>
       <r>    1.5266    1.0000 </r>
       <r>    1.5841    1.0000 </r>
       <r>    1.6305    1.0000 </r>
       <r>    1.7288    1.0000 </r>
       <r>    1.7765    1.0000 </r>
       <r>    1.8543    1.0000 </r>
       <r>    1.9227    1.0000 </r>
       <r>    1.9797    1.0000 </r>
       <r>    2.0393    1.0000 </r>
       <r>    2.0861    1.0000 </r>
       <r>    2.1392    1.0000 </r>
       <r>    2.2309    1.0000 </r>
       <r>    2.2755    1.0000 </r>
       <r>    2.3255    1.0000 </r>
       <r>    2.3769    1.0000 </r>
       <r>    2.4212    1.0000 </r>
       <r>    2.5073    1.0000 </r>
       <r>    2.5762    1.0000 </r>
       <r>    2.6361    1.0000 </r>
       <r>    2.6827    1.0000 </r>
       <r>    2.7124    1.0000 </r>
       <r>    2.7934    1.0000 </r>
       <r>    2.8321    1.0000 </r>
       <r>    2.8611    1.0000 </r>
       <r>    2.9510    1.0000 </r>
       <r>    3.0312    1.0000 </r>
       <r>    3.1584    1.0000 </r>
       <r>    3.3888    1.0000 </r>
       <r>    3.5153    1.0000 </r>
       <r>    3.8058    1.0000 </r>
       <r>    4.3497    1.0000 </r>
       <r>    4.5240    1.0000 </r>
       <r>    4.6829    1.0000 </r>
       <r>    5.2516    1.0000 </r>
       <r>    5.6774    1.0000 </r>
       <r>    5.8816    1.0000 </r>
       <r>    6.0599    1.0000 </r>
       <r>    6.3103    1.0020 </r>
       <r>    7.7228   -0.0000 </r>
       <r>    8.1580   -0.0000 </r>
       <r>    9.1131   -0.0000 </r>
       <r>    9.8906    0.0000 </r>
       <r>   10.4906    0.0000 </r>
       <r>   10.7812    0.0000 </r>
       <r>   10.8277    0.0000 </r>
       <r>   11.3112    0.0000 </r>
       <r>   11.5080    0.0000 </r>
       <r>   11.6542    0.0000 </r>
       <r>   12.0733    0.0000 </r>
       <r>   12.3752    0.0000 </r>
      </set>
      <set comment="kpoint 135">
       <r>   -6.7338    1.0000 </r>
       <r>   -6.6044    1.0000 </r>
       <r>   -6.3058    1.0000 </r>
       <r>   -6.2607    1.0000 </r>
       <r>    0.2029    1.0000 </r>
       <r>    0.3886    1.0000 </r>
       <r>    0.4817    1.0000 </r>
       <r>    0.5590    1.0000 </r>
       <r>    0.6883    1.0000 </r>
       <r>    0.7312    1.0000 </r>
       <r>    0.9295    1.0000 </r>
       <r>    1.0151    1.0000 </r>
       <r>    1.1553    1.0000 </r>
       <r>    1.2042    1.0000 </r>
       <r>    1.3136    1.0000 </r>
       <r>    1.3502    1.0000 </r>
       <r>    1.4061    1.0000 </r>
       <r>    1.4719    1.0000 </r>
       <r>    1.5186    1.0000 </r>
       <r>    1.5573    1.0000 </r>
       <r>    1.6230    1.0000 </r>
       <r>    1.7167    1.0000 </r>
       <r>    1.7920    1.0000 </r>
       <r>    1.8793    1.0000 </r>
       <r>    1.9208    1.0000 </r>
       <r>    2.0105    1.0000 </r>
       <r>    2.0352    1.0000 </r>
       <r>    2.0851    1.0000 </r>
       <r>    2.1742    1.0000 </r>
       <r>    2.2249    1.0000 </r>
       <r>    2.2810    1.0000 </r>
       <r>    2.3193    1.0000 </r>
       <r>    2.3707    1.0000 </r>
       <r>    2.4486    1.0000 </r>
       <r>    2.5281    1.0000 </r>
       <r>    2.5850    1.0000 </r>
       <r>    2.6138    1.0000 </r>
       <r>    2.6711    1.0000 </r>
       <r>    2.7164    1.0000 </r>
       <r>    2.7650    1.0000 </r>
       <r>    2.8318    1.0000 </r>
       <r>    2.8421    1.0000 </r>
       <r>    2.9198    1.0000 </r>
       <r>    2.9846    1.0000 </r>
       <r>    3.1503    1.0000 </r>
       <r>    3.4202    1.0000 </r>
       <r>    3.6289    1.0000 </r>
       <r>    4.0982    1.0000 </r>
       <r>    4.1994    1.0000 </r>
       <r>    4.3670    1.0000 </r>
       <r>    4.5718    1.0000 </r>
       <r>    5.0167    1.0000 </r>
       <r>    5.3896    1.0000 </r>
       <r>    5.6480    1.0000 </r>
       <r>    5.8389    1.0000 </r>
       <r>    6.2570    1.0002 </r>
       <r>    7.7358   -0.0000 </r>
       <r>    8.7144   -0.0000 </r>
       <r>    9.2540   -0.0000 </r>
       <r>   10.2036    0.0000 </r>
       <r>   10.4303    0.0000 </r>
       <r>   10.7853    0.0000 </r>
       <r>   10.8265    0.0000 </r>
       <r>   11.0848    0.0000 </r>
       <r>   11.3777    0.0000 </r>
       <r>   11.6723    0.0000 </r>
       <r>   11.8687    0.0000 </r>
       <r>   12.6513    0.0000 </r>
      </set>
      <set comment="kpoint 136">
       <r>   -6.6860    1.0000 </r>
       <r>   -6.5243    1.0000 </r>
       <r>   -6.3016    1.0000 </r>
       <r>   -6.2527    1.0000 </r>
       <r>    0.2764    1.0000 </r>
       <r>    0.3971    1.0000 </r>
       <r>    0.5366    1.0000 </r>
       <r>    0.5500    1.0000 </r>
       <r>    0.6592    1.0000 </r>
       <r>    0.7847    1.0000 </r>
       <r>    0.9519    1.0000 </r>
       <r>    1.0130    1.0000 </r>
       <r>    1.1218    1.0000 </r>
       <r>    1.1896    1.0000 </r>
       <r>    1.2671    1.0000 </r>
       <r>    1.3463    1.0000 </r>
       <r>    1.4199    1.0000 </r>
       <r>    1.5072    1.0000 </r>
       <r>    1.5495    1.0000 </r>
       <r>    1.5881    1.0000 </r>
       <r>    1.6388    1.0000 </r>
       <r>    1.7390    1.0000 </r>
       <r>    1.7978    1.0000 </r>
       <r>    1.8553    1.0000 </r>
       <r>    1.8899    1.0000 </r>
       <r>    2.0133    1.0000 </r>
       <r>    2.0484    1.0000 </r>
       <r>    2.0786    1.0000 </r>
       <r>    2.1441    1.0000 </r>
       <r>    2.2312    1.0000 </r>
       <r>    2.3016    1.0000 </r>
       <r>    2.3304    1.0000 </r>
       <r>    2.3986    1.0000 </r>
       <r>    2.4437    1.0000 </r>
       <r>    2.5348    1.0000 </r>
       <r>    2.5822    1.0000 </r>
       <r>    2.6007    1.0000 </r>
       <r>    2.6393    1.0000 </r>
       <r>    2.7118    1.0000 </r>
       <r>    2.7165    1.0000 </r>
       <r>    2.7994    1.0000 </r>
       <r>    2.8499    1.0000 </r>
       <r>    2.9079    1.0000 </r>
       <r>    2.9709    1.0000 </r>
       <r>    3.1584    1.0000 </r>
       <r>    3.5160    1.0000 </r>
       <r>    3.7133    1.0000 </r>
       <r>    3.8784    1.0000 </r>
       <r>    4.2897    1.0000 </r>
       <r>    4.3536    1.0000 </r>
       <r>    4.4770    1.0000 </r>
       <r>    4.7058    1.0000 </r>
       <r>    5.1350    1.0000 </r>
       <r>    5.3810    1.0000 </r>
       <r>    5.6829    1.0000 </r>
       <r>    6.2309    1.0000 </r>
       <r>    7.7586   -0.0000 </r>
       <r>    9.1307   -0.0000 </r>
       <r>    9.3057    0.0000 </r>
       <r>    9.7398    0.0000 </r>
       <r>   10.2912    0.0000 </r>
       <r>   10.8368    0.0000 </r>
       <r>   11.0241    0.0000 </r>
       <r>   11.1942    0.0000 </r>
       <r>   11.4954    0.0000 </r>
       <r>   11.8027    0.0000 </r>
       <r>   11.8675    0.0000 </r>
       <r>   12.7842    0.0000 </r>
      </set>
      <set comment="kpoint 137">
       <r>   -6.6141    1.0000 </r>
       <r>   -6.4476    1.0000 </r>
       <r>   -6.2980    1.0000 </r>
       <r>   -6.2543    1.0000 </r>
       <r>    0.3299    1.0000 </r>
       <r>    0.4109    1.0000 </r>
       <r>    0.5004    1.0000 </r>
       <r>    0.6293    1.0000 </r>
       <r>    0.6688    1.0000 </r>
       <r>    0.8099    1.0000 </r>
       <r>    0.9492    1.0000 </r>
       <r>    0.9890    1.0000 </r>
       <r>    1.1399    1.0000 </r>
       <r>    1.1610    1.0000 </r>
       <r>    1.2476    1.0000 </r>
       <r>    1.3436    1.0000 </r>
       <r>    1.4833    1.0000 </r>
       <r>    1.5298    1.0000 </r>
       <r>    1.6003    1.0000 </r>
       <r>    1.6411    1.0000 </r>
       <r>    1.6683    1.0000 </r>
       <r>    1.7393    1.0000 </r>
       <r>    1.8082    1.0000 </r>
       <r>    1.8481    1.0000 </r>
       <r>    1.8812    1.0000 </r>
       <r>    2.0133    1.0000 </r>
       <r>    2.0526    1.0000 </r>
       <r>    2.0721    1.0000 </r>
       <r>    2.1697    1.0000 </r>
       <r>    2.2200    1.0000 </r>
       <r>    2.3286    1.0000 </r>
       <r>    2.3354    1.0000 </r>
       <r>    2.3631    1.0000 </r>
       <r>    2.4430    1.0000 </r>
       <r>    2.5053    1.0000 </r>
       <r>    2.5486    1.0000 </r>
       <r>    2.5884    1.0000 </r>
       <r>    2.6326    1.0000 </r>
       <r>    2.6659    1.0000 </r>
       <r>    2.6980    1.0000 </r>
       <r>    2.7556    1.0000 </r>
       <r>    2.7880    1.0000 </r>
       <r>    2.9154    1.0000 </r>
       <r>    2.9785    1.0000 </r>
       <r>    3.1499    1.0000 </r>
       <r>    3.4791    1.0000 </r>
       <r>    3.8415    1.0000 </r>
       <r>    3.8830    1.0000 </r>
       <r>    4.0828    1.0000 </r>
       <r>    4.1088    1.0000 </r>
       <r>    4.2949    1.0000 </r>
       <r>    4.9061    1.0000 </r>
       <r>    5.0030    1.0000 </r>
       <r>    5.2116    1.0000 </r>
       <r>    5.5533    1.0000 </r>
       <r>    6.1246    1.0000 </r>
       <r>    7.8422   -0.0000 </r>
       <r>    8.9880   -0.0000 </r>
       <r>    9.3582    0.0000 </r>
       <r>    9.7386    0.0000 </r>
       <r>    9.9318    0.0000 </r>
       <r>   10.8626    0.0000 </r>
       <r>   10.9337    0.0000 </r>
       <r>   11.0537    0.0000 </r>
       <r>   11.4308    0.0000 </r>
       <r>   11.8358    0.0000 </r>
       <r>   11.9407    0.0000 </r>
       <r>   12.8692    0.0000 </r>
      </set>
      <set comment="kpoint 138">
       <r>   -6.5291    1.0000 </r>
       <r>   -6.3892    1.0000 </r>
       <r>   -6.3116    1.0000 </r>
       <r>   -6.2578    1.0000 </r>
       <r>    0.3638    1.0000 </r>
       <r>    0.4425    1.0000 </r>
       <r>    0.4651    1.0000 </r>
       <r>    0.6412    1.0000 </r>
       <r>    0.7222    1.0000 </r>
       <r>    0.7788    1.0000 </r>
       <r>    0.9380    1.0000 </r>
       <r>    0.9826    1.0000 </r>
       <r>    1.1192    1.0000 </r>
       <r>    1.2177    1.0000 </r>
       <r>    1.2634    1.0000 </r>
       <r>    1.3913    1.0000 </r>
       <r>    1.4679    1.0000 </r>
       <r>    1.5405    1.0000 </r>
       <r>    1.6125    1.0000 </r>
       <r>    1.6540    1.0000 </r>
       <r>    1.6938    1.0000 </r>
       <r>    1.7291    1.0000 </r>
       <r>    1.8560    1.0000 </r>
       <r>    1.8886    1.0000 </r>
       <r>    1.9633    1.0000 </r>
       <r>    2.0267    1.0000 </r>
       <r>    2.0753    1.0000 </r>
       <r>    2.1220    1.0000 </r>
       <r>    2.1786    1.0000 </r>
       <r>    2.2199    1.0000 </r>
       <r>    2.2917    1.0000 </r>
       <r>    2.2957    1.0000 </r>
       <r>    2.3515    1.0000 </r>
       <r>    2.4452    1.0000 </r>
       <r>    2.4757    1.0000 </r>
       <r>    2.4791    1.0000 </r>
       <r>    2.5902    1.0000 </r>
       <r>    2.6120    1.0000 </r>
       <r>    2.6466    1.0000 </r>
       <r>    2.6876    1.0000 </r>
       <r>    2.7051    1.0000 </r>
       <r>    2.7662    1.0000 </r>
       <r>    2.9181    1.0000 </r>
       <r>    2.9778    1.0000 </r>
       <r>    3.0611    1.0000 </r>
       <r>    3.4210    1.0000 </r>
       <r>    3.5429    1.0000 </r>
       <r>    3.7016    1.0000 </r>
       <r>    4.1570    1.0000 </r>
       <r>    4.1912    1.0000 </r>
       <r>    4.4300    1.0000 </r>
       <r>    4.8268    1.0000 </r>
       <r>    4.9862    1.0000 </r>
       <r>    5.1469    1.0000 </r>
       <r>    5.4947    1.0000 </r>
       <r>    5.8998    1.0000 </r>
       <r>    8.1060   -0.0000 </r>
       <r>    9.0106   -0.0000 </r>
       <r>    9.2055   -0.0000 </r>
       <r>    9.5626    0.0000 </r>
       <r>    9.8882    0.0000 </r>
       <r>   10.2863    0.0000 </r>
       <r>   10.8877    0.0000 </r>
       <r>   11.0542    0.0000 </r>
       <r>   11.1924    0.0000 </r>
       <r>   11.6316    0.0000 </r>
       <r>   11.9804    0.0000 </r>
       <r>   12.4550    0.0000 </r>
      </set>
      <set comment="kpoint 139">
       <r>   -6.4457    1.0000 </r>
       <r>   -6.3784    1.0000 </r>
       <r>   -6.3354    1.0000 </r>
       <r>   -6.2565    1.0000 </r>
       <r>    0.3571    1.0000 </r>
       <r>    0.4624    1.0000 </r>
       <r>    0.5037    1.0000 </r>
       <r>    0.6480    1.0000 </r>
       <r>    0.6799    1.0000 </r>
       <r>    0.7537    1.0000 </r>
       <r>    0.9603    1.0000 </r>
       <r>    0.9877    1.0000 </r>
       <r>    1.1178    1.0000 </r>
       <r>    1.2649    1.0000 </r>
       <r>    1.2711    1.0000 </r>
       <r>    1.3684    1.0000 </r>
       <r>    1.4772    1.0000 </r>
       <r>    1.5347    1.0000 </r>
       <r>    1.5924    1.0000 </r>
       <r>    1.6683    1.0000 </r>
       <r>    1.7311    1.0000 </r>
       <r>    1.7959    1.0000 </r>
       <r>    1.8383    1.0000 </r>
       <r>    1.9406    1.0000 </r>
       <r>    2.0047    1.0000 </r>
       <r>    2.0449    1.0000 </r>
       <r>    2.0695    1.0000 </r>
       <r>    2.1403    1.0000 </r>
       <r>    2.2117    1.0000 </r>
       <r>    2.2463    1.0000 </r>
       <r>    2.2715    1.0000 </r>
       <r>    2.3058    1.0000 </r>
       <r>    2.3343    1.0000 </r>
       <r>    2.3982    1.0000 </r>
       <r>    2.4401    1.0000 </r>
       <r>    2.4847    1.0000 </r>
       <r>    2.5780    1.0000 </r>
       <r>    2.6221    1.0000 </r>
       <r>    2.6470    1.0000 </r>
       <r>    2.6653    1.0000 </r>
       <r>    2.7287    1.0000 </r>
       <r>    2.7815    1.0000 </r>
       <r>    2.9221    1.0000 </r>
       <r>    2.9540    1.0000 </r>
       <r>    2.9915    1.0000 </r>
       <r>    3.1674    1.0000 </r>
       <r>    3.4232    1.0000 </r>
       <r>    3.5112    1.0000 </r>
       <r>    4.3286    1.0000 </r>
       <r>    4.3898    1.0000 </r>
       <r>    4.5713    1.0000 </r>
       <r>    4.6833    1.0000 </r>
       <r>    4.9534    1.0000 </r>
       <r>    5.1260    1.0000 </r>
       <r>    5.5003    1.0000 </r>
       <r>    5.6208    1.0000 </r>
       <r>    8.5595   -0.0000 </r>
       <r>    9.1334   -0.0000 </r>
       <r>    9.2018   -0.0000 </r>
       <r>    9.3481    0.0000 </r>
       <r>    9.5967    0.0000 </r>
       <r>    9.7937    0.0000 </r>
       <r>   10.9149    0.0000 </r>
       <r>   11.0321    0.0000 </r>
       <r>   11.1072    0.0000 </r>
       <r>   11.3434    0.0000 </r>
       <r>   11.9731    0.0000 </r>
       <r>   12.3240    0.0000 </r>
      </set>
      <set comment="kpoint 140">
       <r>   -6.7268    1.0000 </r>
       <r>   -6.6861    1.0000 </r>
       <r>   -6.3215    1.0000 </r>
       <r>   -6.3065    1.0000 </r>
       <r>    0.1307    1.0000 </r>
       <r>    0.2749    1.0000 </r>
       <r>    0.4994    1.0000 </r>
       <r>    0.6469    1.0000 </r>
       <r>    0.6719    1.0000 </r>
       <r>    0.7358    1.0000 </r>
       <r>    0.7971    1.0000 </r>
       <r>    0.9294    1.0000 </r>
       <r>    1.1547    1.0000 </r>
       <r>    1.1767    1.0000 </r>
       <r>    1.3492    1.0000 </r>
       <r>    1.3800    1.0000 </r>
       <r>    1.4056    1.0000 </r>
       <r>    1.4719    1.0000 </r>
       <r>    1.5307    1.0000 </r>
       <r>    1.5869    1.0000 </r>
       <r>    1.6672    1.0000 </r>
       <r>    1.7130    1.0000 </r>
       <r>    1.7996    1.0000 </r>
       <r>    1.8791    1.0000 </r>
       <r>    1.9437    1.0000 </r>
       <r>    2.0080    1.0000 </r>
       <r>    2.0386    1.0000 </r>
       <r>    2.0969    1.0000 </r>
       <r>    2.1860    1.0000 </r>
       <r>    2.2233    1.0000 </r>
       <r>    2.2923    1.0000 </r>
       <r>    2.3395    1.0000 </r>
       <r>    2.3857    1.0000 </r>
       <r>    2.3963    1.0000 </r>
       <r>    2.4598    1.0000 </r>
       <r>    2.5754    1.0000 </r>
       <r>    2.6129    1.0000 </r>
       <r>    2.7000    1.0000 </r>
       <r>    2.7132    1.0000 </r>
       <r>    2.7681    1.0000 </r>
       <r>    2.8306    1.0000 </r>
       <r>    2.8814    1.0000 </r>
       <r>    2.9561    1.0000 </r>
       <r>    3.0297    1.0000 </r>
       <r>    3.2430    1.0000 </r>
       <r>    3.3464    1.0000 </r>
       <r>    3.4613    1.0000 </r>
       <r>    3.6585    1.0000 </r>
       <r>    4.4660    1.0000 </r>
       <r>    4.5823    1.0000 </r>
       <r>    4.9344    1.0000 </r>
       <r>    5.3542    1.0000 </r>
       <r>    5.7861    1.0000 </r>
       <r>    5.9221    1.0000 </r>
       <r>    6.2465    1.0001 </r>
       <r>    6.3452    1.0073 </r>
       <r>    7.7194   -0.0000 </r>
       <r>    7.7872   -0.0000 </r>
       <r>    9.0286   -0.0000 </r>
       <r>    9.4326    0.0000 </r>
       <r>   10.6206    0.0000 </r>
       <r>   10.6510    0.0000 </r>
       <r>   10.9458    0.0000 </r>
       <r>   11.2962    0.0000 </r>
       <r>   11.5095    0.0000 </r>
       <r>   11.8895    0.0000 </r>
       <r>   12.2064    0.0000 </r>
       <r>   12.4187    0.0000 </r>
      </set>
      <set comment="kpoint 141">
       <r>   -6.7303    1.0000 </r>
       <r>   -6.6534    1.0000 </r>
       <r>   -6.3264    1.0000 </r>
       <r>   -6.2952    1.0000 </r>
       <r>    0.1500    1.0000 </r>
       <r>    0.2971    1.0000 </r>
       <r>    0.4963    1.0000 </r>
       <r>    0.6314    1.0000 </r>
       <r>    0.6596    1.0000 </r>
       <r>    0.7344    1.0000 </r>
       <r>    0.8387    1.0000 </r>
       <r>    0.9468    1.0000 </r>
       <r>    1.1300    1.0000 </r>
       <r>    1.2072    1.0000 </r>
       <r>    1.3279    1.0000 </r>
       <r>    1.3702    1.0000 </r>
       <r>    1.4169    1.0000 </r>
       <r>    1.4598    1.0000 </r>
       <r>    1.5113    1.0000 </r>
       <r>    1.5922    1.0000 </r>
       <r>    1.6339    1.0000 </r>
       <r>    1.7035    1.0000 </r>
       <r>    1.8055    1.0000 </r>
       <r>    1.9051    1.0000 </r>
       <r>    1.9599    1.0000 </r>
       <r>    2.0015    1.0000 </r>
       <r>    2.0238    1.0000 </r>
       <r>    2.1037    1.0000 </r>
       <r>    2.1672    1.0000 </r>
       <r>    2.2297    1.0000 </r>
       <r>    2.3050    1.0000 </r>
       <r>    2.3155    1.0000 </r>
       <r>    2.3747    1.0000 </r>
       <r>    2.4298    1.0000 </r>
       <r>    2.4799    1.0000 </r>
       <r>    2.5803    1.0000 </r>
       <r>    2.6111    1.0000 </r>
       <r>    2.6967    1.0000 </r>
       <r>    2.7143    1.0000 </r>
       <r>    2.7620    1.0000 </r>
       <r>    2.8246    1.0000 </r>
       <r>    2.8814    1.0000 </r>
       <r>    2.9325    1.0000 </r>
       <r>    3.0193    1.0000 </r>
       <r>    3.1758    1.0000 </r>
       <r>    3.4138    1.0000 </r>
       <r>    3.5392    1.0000 </r>
       <r>    3.7392    1.0000 </r>
       <r>    4.4769    1.0000 </r>
       <r>    4.5591    1.0000 </r>
       <r>    4.7261    1.0000 </r>
       <r>    5.3283    1.0000 </r>
       <r>    5.7097    1.0000 </r>
       <r>    5.8480    1.0000 </r>
       <r>    6.0423    1.0000 </r>
       <r>    6.2841    1.0006 </r>
       <r>    7.7463   -0.0000 </r>
       <r>    8.0665   -0.0000 </r>
       <r>    9.1110   -0.0000 </r>
       <r>    9.7671    0.0000 </r>
       <r>   10.4340    0.0000 </r>
       <r>   10.6666    0.0000 </r>
       <r>   10.9837    0.0000 </r>
       <r>   11.2163    0.0000 </r>
       <r>   11.4154    0.0000 </r>
       <r>   11.6043    0.0000 </r>
       <r>   12.2879    0.0000 </r>
       <r>   12.4542    0.0000 </r>
      </set>
      <set comment="kpoint 142">
       <r>   -6.7133    1.0000 </r>
       <r>   -6.5874    1.0000 </r>
       <r>   -6.3272    1.0000 </r>
       <r>   -6.2779    1.0000 </r>
       <r>    0.2024    1.0000 </r>
       <r>    0.3461    1.0000 </r>
       <r>    0.4814    1.0000 </r>
       <r>    0.5939    1.0000 </r>
       <r>    0.6758    1.0000 </r>
       <r>    0.7696    1.0000 </r>
       <r>    0.8891    1.0000 </r>
       <r>    0.9745    1.0000 </r>
       <r>    1.1010    1.0000 </r>
       <r>    1.2102    1.0000 </r>
       <r>    1.3088    1.0000 </r>
       <r>    1.3382    1.0000 </r>
       <r>    1.3967    1.0000 </r>
       <r>    1.4944    1.0000 </r>
       <r>    1.5132    1.0000 </r>
       <r>    1.5570    1.0000 </r>
       <r>    1.6284    1.0000 </r>
       <r>    1.7164    1.0000 </r>
       <r>    1.8018    1.0000 </r>
       <r>    1.8893    1.0000 </r>
       <r>    1.9472    1.0000 </r>
       <r>    2.0039    1.0000 </r>
       <r>    2.0290    1.0000 </r>
       <r>    2.1105    1.0000 </r>
       <r>    2.1490    1.0000 </r>
       <r>    2.2335    1.0000 </r>
       <r>    2.2833    1.0000 </r>
       <r>    2.3555    1.0000 </r>
       <r>    2.3701    1.0000 </r>
       <r>    2.4533    1.0000 </r>
       <r>    2.5078    1.0000 </r>
       <r>    2.5809    1.0000 </r>
       <r>    2.6009    1.0000 </r>
       <r>    2.6667    1.0000 </r>
       <r>    2.7160    1.0000 </r>
       <r>    2.7365    1.0000 </r>
       <r>    2.8048    1.0000 </r>
       <r>    2.8668    1.0000 </r>
       <r>    2.9058    1.0000 </r>
       <r>    3.0089    1.0000 </r>
       <r>    3.2034    1.0000 </r>
       <r>    3.4353    1.0000 </r>
       <r>    3.6747    1.0000 </r>
       <r>    3.9581    1.0000 </r>
       <r>    4.2540    1.0000 </r>
       <r>    4.4955    1.0000 </r>
       <r>    4.6109    1.0000 </r>
       <r>    5.0979    1.0000 </r>
       <r>    5.4388    1.0000 </r>
       <r>    5.6172    1.0000 </r>
       <r>    5.8183    1.0000 </r>
       <r>    6.1892    1.0000 </r>
       <r>    7.8625   -0.0000 </r>
       <r>    8.5948   -0.0000 </r>
       <r>    9.2822    0.0000 </r>
       <r>   10.1245    0.0000 </r>
       <r>   10.2936    0.0000 </r>
       <r>   10.6157    0.0000 </r>
       <r>   10.8484    0.0000 </r>
       <r>   11.0463    0.0000 </r>
       <r>   11.2952    0.0000 </r>
       <r>   11.6713    0.0000 </r>
       <r>   12.1995    0.0000 </r>
       <r>   12.6526    0.0000 </r>
      </set>
      <set comment="kpoint 143">
       <r>   -6.6674    1.0000 </r>
       <r>   -6.5105    1.0000 </r>
       <r>   -6.3209    1.0000 </r>
       <r>   -6.2656    1.0000 </r>
       <r>    0.2699    1.0000 </r>
       <r>    0.3616    1.0000 </r>
       <r>    0.5012    1.0000 </r>
       <r>    0.5876    1.0000 </r>
       <r>    0.6941    1.0000 </r>
       <r>    0.8213    1.0000 </r>
       <r>    0.9173    1.0000 </r>
       <r>    0.9766    1.0000 </r>
       <r>    1.1076    1.0000 </r>
       <r>    1.1598    1.0000 </r>
       <r>    1.2625    1.0000 </r>
       <r>    1.3557    1.0000 </r>
       <r>    1.4335    1.0000 </r>
       <r>    1.4786    1.0000 </r>
       <r>    1.5385    1.0000 </r>
       <r>    1.5935    1.0000 </r>
       <r>    1.6610    1.0000 </r>
       <r>    1.7395    1.0000 </r>
       <r>    1.7888    1.0000 </r>
       <r>    1.8453    1.0000 </r>
       <r>    1.9158    1.0000 </r>
       <r>    1.9937    1.0000 </r>
       <r>    2.0534    1.0000 </r>
       <r>    2.0882    1.0000 </r>
       <r>    2.1468    1.0000 </r>
       <r>    2.2468    1.0000 </r>
       <r>    2.2975    1.0000 </r>
       <r>    2.3493    1.0000 </r>
       <r>    2.3783    1.0000 </r>
       <r>    2.4453    1.0000 </r>
       <r>    2.5121    1.0000 </r>
       <r>    2.5556    1.0000 </r>
       <r>    2.6109    1.0000 </r>
       <r>    2.6260    1.0000 </r>
       <r>    2.6934    1.0000 </r>
       <r>    2.7090    1.0000 </r>
       <r>    2.7823    1.0000 </r>
       <r>    2.8483    1.0000 </r>
       <r>    2.9126    1.0000 </r>
       <r>    3.0019    1.0000 </r>
       <r>    3.2493    1.0000 </r>
       <r>    3.4738    1.0000 </r>
       <r>    3.7112    1.0000 </r>
       <r>    3.9532    1.0000 </r>
       <r>    4.1838    1.0000 </r>
       <r>    4.3730    1.0000 </r>
       <r>    4.6402    1.0000 </r>
       <r>    4.7561    1.0000 </r>
       <r>    5.2136    1.0000 </r>
       <r>    5.3715    1.0000 </r>
       <r>    5.6492    1.0000 </r>
       <r>    6.1324    1.0000 </r>
       <r>    7.9763   -0.0000 </r>
       <r>    9.0631   -0.0000 </r>
       <r>    9.2354   -0.0000 </r>
       <r>    9.7935    0.0000 </r>
       <r>   10.2308    0.0000 </r>
       <r>   10.5833    0.0000 </r>
       <r>   10.8051    0.0000 </r>
       <r>   11.1189    0.0000 </r>
       <r>   11.6162    0.0000 </r>
       <r>   11.7554    0.0000 </r>
       <r>   12.1513    0.0000 </r>
       <r>   12.6275    0.0000 </r>
      </set>
      <set comment="kpoint 144">
       <r>   -6.5984    1.0000 </r>
       <r>   -6.4376    1.0000 </r>
       <r>   -6.3130    1.0000 </r>
       <r>   -6.2635    1.0000 </r>
       <r>    0.3254    1.0000 </r>
       <r>    0.3614    1.0000 </r>
       <r>    0.5085    1.0000 </r>
       <r>    0.6133    1.0000 </r>
       <r>    0.7258    1.0000 </r>
       <r>    0.8485    1.0000 </r>
       <r>    0.8932    1.0000 </r>
       <r>    0.9843    1.0000 </r>
       <r>    1.1283    1.0000 </r>
       <r>    1.1697    1.0000 </r>
       <r>    1.2481    1.0000 </r>
       <r>    1.3556    1.0000 </r>
       <r>    1.4793    1.0000 </r>
       <r>    1.4969    1.0000 </r>
       <r>    1.5683    1.0000 </r>
       <r>    1.6425    1.0000 </r>
       <r>    1.6826    1.0000 </r>
       <r>    1.7528    1.0000 </r>
       <r>    1.8004    1.0000 </r>
       <r>    1.8553    1.0000 </r>
       <r>    1.8895    1.0000 </r>
       <r>    1.9780    1.0000 </r>
       <r>    2.0495    1.0000 </r>
       <r>    2.0969    1.0000 </r>
       <r>    2.1719    1.0000 </r>
       <r>    2.2321    1.0000 </r>
       <r>    2.3309    1.0000 </r>
       <r>    2.3371    1.0000 </r>
       <r>    2.3664    1.0000 </r>
       <r>    2.4069    1.0000 </r>
       <r>    2.4708    1.0000 </r>
       <r>    2.5486    1.0000 </r>
       <r>    2.5970    1.0000 </r>
       <r>    2.6133    1.0000 </r>
       <r>    2.6550    1.0000 </r>
       <r>    2.6944    1.0000 </r>
       <r>    2.7479    1.0000 </r>
       <r>    2.8178    1.0000 </r>
       <r>    2.9221    1.0000 </r>
       <r>    2.9819    1.0000 </r>
       <r>    3.2635    1.0000 </r>
       <r>    3.4265    1.0000 </r>
       <r>    3.6242    1.0000 </r>
       <r>    3.8671    1.0000 </r>
       <r>    4.0690    1.0000 </r>
       <r>    4.3225    1.0000 </r>
       <r>    4.5051    1.0000 </r>
       <r>    4.8251    1.0000 </r>
       <r>    5.0899    1.0000 </r>
       <r>    5.2557    1.0000 </r>
       <r>    5.4748    1.0000 </r>
       <r>    6.0772    1.0000 </r>
       <r>    8.0869   -0.0000 </r>
       <r>    8.9263   -0.0000 </r>
       <r>    9.4020    0.0000 </r>
       <r>    9.6853    0.0000 </r>
       <r>    9.9739    0.0000 </r>
       <r>   10.3957    0.0000 </r>
       <r>   10.8278    0.0000 </r>
       <r>   11.1507    0.0000 </r>
       <r>   11.4608    0.0000 </r>
       <r>   11.8323    0.0000 </r>
       <r>   12.0882    0.0000 </r>
       <r>   12.7201    0.0000 </r>
      </set>
      <set comment="kpoint 145">
       <r>   -6.5170    1.0000 </r>
       <r>   -6.3830    1.0000 </r>
       <r>   -6.3192    1.0000 </r>
       <r>   -6.2660    1.0000 </r>
       <r>    0.3384    1.0000 </r>
       <r>    0.3974    1.0000 </r>
       <r>    0.4835    1.0000 </r>
       <r>    0.6475    1.0000 </r>
       <r>    0.7291    1.0000 </r>
       <r>    0.8440    1.0000 </r>
       <r>    0.8949    1.0000 </r>
       <r>    0.9886    1.0000 </r>
       <r>    1.1282    1.0000 </r>
       <r>    1.2136    1.0000 </r>
       <r>    1.2769    1.0000 </r>
       <r>    1.3755    1.0000 </r>
       <r>    1.4664    1.0000 </r>
       <r>    1.5407    1.0000 </r>
       <r>    1.5870    1.0000 </r>
       <r>    1.6696    1.0000 </r>
       <r>    1.6792    1.0000 </r>
       <r>    1.7509    1.0000 </r>
       <r>    1.8513    1.0000 </r>
       <r>    1.8807    1.0000 </r>
       <r>    1.9428    1.0000 </r>
       <r>    2.0009    1.0000 </r>
       <r>    2.0687    1.0000 </r>
       <r>    2.1211    1.0000 </r>
       <r>    2.1702    1.0000 </r>
       <r>    2.2368    1.0000 </r>
       <r>    2.2963    1.0000 </r>
       <r>    2.3064    1.0000 </r>
       <r>    2.3484    1.0000 </r>
       <r>    2.4009    1.0000 </r>
       <r>    2.4832    1.0000 </r>
       <r>    2.4970    1.0000 </r>
       <r>    2.5740    1.0000 </r>
       <r>    2.6009    1.0000 </r>
       <r>    2.6281    1.0000 </r>
       <r>    2.6863    1.0000 </r>
       <r>    2.7087    1.0000 </r>
       <r>    2.7662    1.0000 </r>
       <r>    2.9205    1.0000 </r>
       <r>    2.9697    1.0000 </r>
       <r>    3.2038    1.0000 </r>
       <r>    3.3277    1.0000 </r>
       <r>    3.5105    1.0000 </r>
       <r>    3.6772    1.0000 </r>
       <r>    3.9739    1.0000 </r>
       <r>    4.3549    1.0000 </r>
       <r>    4.6285    1.0000 </r>
       <r>    4.9092    1.0000 </r>
       <r>    4.9287    1.0000 </r>
       <r>    5.1260    1.0000 </r>
       <r>    5.4489    1.0000 </r>
       <r>    6.0011    1.0000 </r>
       <r>    8.2952   -0.0000 </r>
       <r>    8.9100   -0.0000 </r>
       <r>    9.2446   -0.0000 </r>
       <r>    9.6657    0.0000 </r>
       <r>    9.9283    0.0000 </r>
       <r>   10.0033    0.0000 </r>
       <r>   10.8060    0.0000 </r>
       <r>   10.9043    0.0000 </r>
       <r>   11.3407    0.0000 </r>
       <r>   11.7520    0.0000 </r>
       <r>   12.0349    0.0000 </r>
       <r>   12.3691    0.0000 </r>
      </set>
      <set comment="kpoint 146">
       <r>   -6.4375    1.0000 </r>
       <r>   -6.3744    1.0000 </r>
       <r>   -6.3373    1.0000 </r>
       <r>   -6.2637    1.0000 </r>
       <r>    0.3388    1.0000 </r>
       <r>    0.4115    1.0000 </r>
       <r>    0.4957    1.0000 </r>
       <r>    0.6385    1.0000 </r>
       <r>    0.7205    1.0000 </r>
       <r>    0.8283    1.0000 </r>
       <r>    0.9422    1.0000 </r>
       <r>    0.9829    1.0000 </r>
       <r>    1.1258    1.0000 </r>
       <r>    1.2442    1.0000 </r>
       <r>    1.2929    1.0000 </r>
       <r>    1.3452    1.0000 </r>
       <r>    1.4929    1.0000 </r>
       <r>    1.5377    1.0000 </r>
       <r>    1.5909    1.0000 </r>
       <r>    1.6811    1.0000 </r>
       <r>    1.7277    1.0000 </r>
       <r>    1.7836    1.0000 </r>
       <r>    1.8361    1.0000 </r>
       <r>    1.9249    1.0000 </r>
       <r>    1.9680    1.0000 </r>
       <r>    2.0193    1.0000 </r>
       <r>    2.0936    1.0000 </r>
       <r>    2.1563    1.0000 </r>
       <r>    2.1935    1.0000 </r>
       <r>    2.2341    1.0000 </r>
       <r>    2.2620    1.0000 </r>
       <r>    2.3093    1.0000 </r>
       <r>    2.3236    1.0000 </r>
       <r>    2.3897    1.0000 </r>
       <r>    2.4341    1.0000 </r>
       <r>    2.4792    1.0000 </r>
       <r>    2.5828    1.0000 </r>
       <r>    2.6002    1.0000 </r>
       <r>    2.6268    1.0000 </r>
       <r>    2.6531    1.0000 </r>
       <r>    2.7497    1.0000 </r>
       <r>    2.7783    1.0000 </r>
       <r>    2.8753    1.0000 </r>
       <r>    2.9447    1.0000 </r>
       <r>    3.1104    1.0000 </r>
       <r>    3.1717    1.0000 </r>
       <r>    3.4395    1.0000 </r>
       <r>    3.5174    1.0000 </r>
       <r>    4.1691    1.0000 </r>
       <r>    4.4366    1.0000 </r>
       <r>    4.5890    1.0000 </r>
       <r>    4.6866    1.0000 </r>
       <r>    4.9614    1.0000 </r>
       <r>    5.1059    1.0000 </r>
       <r>    5.5860    1.0000 </r>
       <r>    5.8381    1.0000 </r>
       <r>    8.6628   -0.0000 </r>
       <r>    9.0092   -0.0000 </r>
       <r>    9.2315   -0.0000 </r>
       <r>    9.3582    0.0000 </r>
       <r>    9.5992    0.0000 </r>
       <r>    9.8911    0.0000 </r>
       <r>   10.7056    0.0000 </r>
       <r>   10.7854    0.0000 </r>
       <r>   11.3702    0.0000 </r>
       <r>   11.6280    0.0000 </r>
       <r>   11.9941    0.0000 </r>
       <r>   12.1918    0.0000 </r>
      </set>
      <set comment="kpoint 147">
       <r>   -6.6648    1.0000 </r>
       <r>   -6.6304    1.0000 </r>
       <r>   -6.3774    1.0000 </r>
       <r>   -6.3737    1.0000 </r>
       <r>    0.1664    1.0000 </r>
       <r>    0.2534    1.0000 </r>
       <r>    0.4802    1.0000 </r>
       <r>    0.5793    1.0000 </r>
       <r>    0.6289    1.0000 </r>
       <r>    0.6575    1.0000 </r>
       <r>    0.8205    1.0000 </r>
       <r>    0.9288    1.0000 </r>
       <r>    1.1005    1.0000 </r>
       <r>    1.1536    1.0000 </r>
       <r>    1.2619    1.0000 </r>
       <r>    1.3255    1.0000 </r>
       <r>    1.3798    1.0000 </r>
       <r>    1.4741    1.0000 </r>
       <r>    1.6091    1.0000 </r>
       <r>    1.6199    1.0000 </r>
       <r>    1.7144    1.0000 </r>
       <r>    1.7249    1.0000 </r>
       <r>    1.8230    1.0000 </r>
       <r>    1.9039    1.0000 </r>
       <r>    1.9930    1.0000 </r>
       <r>    2.0019    1.0000 </r>
       <r>    2.0594    1.0000 </r>
       <r>    2.1342    1.0000 </r>
       <r>    2.2162    1.0000 </r>
       <r>    2.2383    1.0000 </r>
       <r>    2.3262    1.0000 </r>
       <r>    2.3299    1.0000 </r>
       <r>    2.3941    1.0000 </r>
       <r>    2.3950    1.0000 </r>
       <r>    2.4605    1.0000 </r>
       <r>    2.5895    1.0000 </r>
       <r>    2.6191    1.0000 </r>
       <r>    2.6856    1.0000 </r>
       <r>    2.7257    1.0000 </r>
       <r>    2.7367    1.0000 </r>
       <r>    2.8230    1.0000 </r>
       <r>    2.8318    1.0000 </r>
       <r>    2.9098    1.0000 </r>
       <r>    2.9870    1.0000 </r>
       <r>    3.2737    1.0000 </r>
       <r>    3.2914    1.0000 </r>
       <r>    3.6103    1.0000 </r>
       <r>    3.6775    1.0000 </r>
       <r>    4.6582    1.0000 </r>
       <r>    4.6974    1.0000 </r>
       <r>    5.1247    1.0000 </r>
       <r>    5.4133    1.0000 </r>
       <r>    5.8059    1.0000 </r>
       <r>    5.8350    1.0000 </r>
       <r>    6.1641    1.0000 </r>
       <r>    6.2918    1.0009 </r>
       <r>    7.7678   -0.0000 </r>
       <r>    7.8122   -0.0000 </r>
       <r>    8.8643   -0.0000 </r>
       <r>    9.1775   -0.0000 </r>
       <r>   10.4770    0.0000 </r>
       <r>   10.6460    0.0000 </r>
       <r>   11.0000    0.0000 </r>
       <r>   11.1737    0.0000 </r>
       <r>   11.4786    0.0000 </r>
       <r>   11.7349    0.0000 </r>
       <r>   12.1715    0.0000 </r>
       <r>   12.3137    0.0000 </r>
      </set>
      <set comment="kpoint 148">
       <r>   -6.6694    1.0000 </r>
       <r>   -6.5997    1.0000 </r>
       <r>   -6.3881    1.0000 </r>
       <r>   -6.3527    1.0000 </r>
       <r>    0.1789    1.0000 </r>
       <r>    0.2705    1.0000 </r>
       <r>    0.4783    1.0000 </r>
       <r>    0.5462    1.0000 </r>
       <r>    0.6694    1.0000 </r>
       <r>    0.6986    1.0000 </r>
       <r>    0.8239    1.0000 </r>
       <r>    0.9277    1.0000 </r>
       <r>    1.0867    1.0000 </r>
       <r>    1.1730    1.0000 </r>
       <r>    1.2547    1.0000 </r>
       <r>    1.3359    1.0000 </r>
       <r>    1.3676    1.0000 </r>
       <r>    1.4692    1.0000 </r>
       <r>    1.5744    1.0000 </r>
       <r>    1.6205    1.0000 </r>
       <r>    1.6670    1.0000 </r>
       <r>    1.7446    1.0000 </r>
       <r>    1.8182    1.0000 </r>
       <r>    1.9204    1.0000 </r>
       <r>    1.9729    1.0000 </r>
       <r>    2.0069    1.0000 </r>
       <r>    2.0435    1.0000 </r>
       <r>    2.1264    1.0000 </r>
       <r>    2.2170    1.0000 </r>
       <r>    2.2460    1.0000 </r>
       <r>    2.2954    1.0000 </r>
       <r>    2.3554    1.0000 </r>
       <r>    2.3840    1.0000 </r>
       <r>    2.4229    1.0000 </r>
       <r>    2.4708    1.0000 </r>
       <r>    2.5778    1.0000 </r>
       <r>    2.6165    1.0000 </r>
       <r>    2.6702    1.0000 </r>
       <r>    2.7063    1.0000 </r>
       <r>    2.7346    1.0000 </r>
       <r>    2.7868    1.0000 </r>
       <r>    2.8709    1.0000 </r>
       <r>    2.9102    1.0000 </r>
       <r>    3.0051    1.0000 </r>
       <r>    3.2290    1.0000 </r>
       <r>    3.4026    1.0000 </r>
       <r>    3.6315    1.0000 </r>
       <r>    3.7420    1.0000 </r>
       <r>    4.6603    1.0000 </r>
       <r>    4.6899    1.0000 </r>
       <r>    4.8951    1.0000 </r>
       <r>    5.4100    1.0000 </r>
       <r>    5.6632    1.0000 </r>
       <r>    5.8050    1.0000 </r>
       <r>    6.0065    1.0000 </r>
       <r>    6.1952    1.0000 </r>
       <r>    7.9013   -0.0000 </r>
       <r>    8.0273   -0.0000 </r>
       <r>    9.0003   -0.0000 </r>
       <r>    9.4331    0.0000 </r>
       <r>   10.2088    0.0000 </r>
       <r>   10.6721    0.0000 </r>
       <r>   10.9176    0.0000 </r>
       <r>   11.2223    0.0000 </r>
       <r>   11.3011    0.0000 </r>
       <r>   11.6916    0.0000 </r>
       <r>   12.0916    0.0000 </r>
       <r>   12.4371    0.0000 </r>
      </set>
      <set comment="kpoint 149">
       <r>   -6.6553    1.0000 </r>
       <r>   -6.5400    1.0000 </r>
       <r>   -6.3874    1.0000 </r>
       <r>   -6.3256    1.0000 </r>
       <r>    0.2134    1.0000 </r>
       <r>    0.3066    1.0000 </r>
       <r>    0.4718    1.0000 </r>
       <r>    0.5375    1.0000 </r>
       <r>    0.7139    1.0000 </r>
       <r>    0.7870    1.0000 </r>
       <r>    0.8431    1.0000 </r>
       <r>    0.9283    1.0000 </r>
       <r>    1.0785    1.0000 </r>
       <r>    1.1720    1.0000 </r>
       <r>    1.2326    1.0000 </r>
       <r>    1.3285    1.0000 </r>
       <r>    1.4025    1.0000 </r>
       <r>    1.4495    1.0000 </r>
       <r>    1.5410    1.0000 </r>
       <r>    1.5913    1.0000 </r>
       <r>    1.6729    1.0000 </r>
       <r>    1.7202    1.0000 </r>
       <r>    1.8160    1.0000 </r>
       <r>    1.9077    1.0000 </r>
       <r>    1.9331    1.0000 </r>
       <r>    1.9899    1.0000 </r>
       <r>    2.0414    1.0000 </r>
       <r>    2.1372    1.0000 </r>
       <r>    2.1947    1.0000 </r>
       <r>    2.2577    1.0000 </r>
       <r>    2.3014    1.0000 </r>
       <r>    2.3475    1.0000 </r>
       <r>    2.3751    1.0000 </r>
       <r>    2.4410    1.0000 </r>
       <r>    2.4981    1.0000 </r>
       <r>    2.5459    1.0000 </r>
       <r>    2.5938    1.0000 </r>
       <r>    2.6310    1.0000 </r>
       <r>    2.6967    1.0000 </r>
       <r>    2.7216    1.0000 </r>
       <r>    2.7706    1.0000 </r>
       <r>    2.8716    1.0000 </r>
       <r>    2.9218    1.0000 </r>
       <r>    2.9887    1.0000 </r>
       <r>    3.2866    1.0000 </r>
       <r>    3.5030    1.0000 </r>
       <r>    3.7572    1.0000 </r>
       <r>    3.8786    1.0000 </r>
       <r>    4.4201    1.0000 </r>
       <r>    4.6107    1.0000 </r>
       <r>    4.7722    1.0000 </r>
       <r>    5.1640    1.0000 </r>
       <r>    5.4214    1.0000 </r>
       <r>    5.6199    1.0000 </r>
       <r>    5.7865    1.0000 </r>
       <r>    6.0861    1.0000 </r>
       <r>    8.1961   -0.0000 </r>
       <r>    8.4650   -0.0000 </r>
       <r>    9.2905    0.0000 </r>
       <r>    9.7157    0.0000 </r>
       <r>    9.9696    0.0000 </r>
       <r>   10.4565    0.0000 </r>
       <r>   10.7053    0.0000 </r>
       <r>   10.9401    0.0000 </r>
       <r>   11.4945    0.0000 </r>
       <r>   11.7387    0.0000 </r>
       <r>   12.0811    0.0000 </r>
       <r>   12.5796    0.0000 </r>
      </set>
      <set comment="kpoint 150">
       <r>   -6.6151    1.0000 </r>
       <r>   -6.4722    1.0000 </r>
       <r>   -6.3747    1.0000 </r>
       <r>   -6.3020    1.0000 </r>
       <r>    0.2584    1.0000 </r>
       <r>    0.3248    1.0000 </r>
       <r>    0.4968    1.0000 </r>
       <r>    0.5531    1.0000 </r>
       <r>    0.7148    1.0000 </r>
       <r>    0.8698    1.0000 </r>
       <r>    0.8920    1.0000 </r>
       <r>    0.9404    1.0000 </r>
       <r>    1.0943    1.0000 </r>
       <r>    1.1422    1.0000 </r>
       <r>    1.2079    1.0000 </r>
       <r>    1.3540    1.0000 </r>
       <r>    1.4189    1.0000 </r>
       <r>    1.4667    1.0000 </r>
       <r>    1.5502    1.0000 </r>
       <r>    1.6059    1.0000 </r>
       <r>    1.6549    1.0000 </r>
       <r>    1.7258    1.0000 </r>
       <r>    1.7899    1.0000 </r>
       <r>    1.8651    1.0000 </r>
       <r>    1.9251    1.0000 </r>
       <r>    1.9687    1.0000 </r>
       <r>    2.0551    1.0000 </r>
       <r>    2.1282    1.0000 </r>
       <r>    2.1930    1.0000 </r>
       <r>    2.2451    1.0000 </r>
       <r>    2.3044    1.0000 </r>
       <r>    2.3312    1.0000 </r>
       <r>    2.3744    1.0000 </r>
       <r>    2.4103    1.0000 </r>
       <r>    2.4920    1.0000 </r>
       <r>    2.5347    1.0000 </r>
       <r>    2.5624    1.0000 </r>
       <r>    2.6241    1.0000 </r>
       <r>    2.6793    1.0000 </r>
       <r>    2.7038    1.0000 </r>
       <r>    2.7588    1.0000 </r>
       <r>    2.8538    1.0000 </r>
       <r>    2.9193    1.0000 </r>
       <r>    2.9819    1.0000 </r>
       <r>    3.3269    1.0000 </r>
       <r>    3.5459    1.0000 </r>
       <r>    3.7814    1.0000 </r>
       <r>    3.9303    1.0000 </r>
       <r>    4.2930    1.0000 </r>
       <r>    4.4125    1.0000 </r>
       <r>    4.7402    1.0000 </r>
       <r>    4.9080    1.0000 </r>
       <r>    5.1842    1.0000 </r>
       <r>    5.4237    1.0000 </r>
       <r>    5.6441    1.0000 </r>
       <r>    6.0512    1.0000 </r>
       <r>    8.4548   -0.0000 </r>
       <r>    8.8923   -0.0000 </r>
       <r>    9.1660   -0.0000 </r>
       <r>    9.7409    0.0000 </r>
       <r>   10.0423    0.0000 </r>
       <r>   10.1859    0.0000 </r>
       <r>   10.4182    0.0000 </r>
       <r>   11.0279    0.0000 </r>
       <r>   11.6150    0.0000 </r>
       <r>   11.8835    0.0000 </r>
       <r>   12.2029    0.0000 </r>
       <r>   12.5207    0.0000 </r>
      </set>
      <set comment="kpoint 151">
       <r>   -6.5543    1.0000 </r>
       <r>   -6.4104    1.0000 </r>
       <r>   -6.3553    1.0000 </r>
       <r>   -6.2891    1.0000 </r>
       <r>    0.2837    1.0000 </r>
       <r>    0.3438    1.0000 </r>
       <r>    0.5194    1.0000 </r>
       <r>    0.5880    1.0000 </r>
       <r>    0.6928    1.0000 </r>
       <r>    0.8573    1.0000 </r>
       <r>    0.9408    1.0000 </r>
       <r>    0.9923    1.0000 </r>
       <r>    1.1373    1.0000 </r>
       <r>    1.1627    1.0000 </r>
       <r>    1.2287    1.0000 </r>
       <r>    1.3679    1.0000 </r>
       <r>    1.4272    1.0000 </r>
       <r>    1.4833    1.0000 </r>
       <r>    1.5895    1.0000 </r>
       <r>    1.6174    1.0000 </r>
       <r>    1.6712    1.0000 </r>
       <r>    1.7433    1.0000 </r>
       <r>    1.7914    1.0000 </r>
       <r>    1.8515    1.0000 </r>
       <r>    1.9028    1.0000 </r>
       <r>    1.9654    1.0000 </r>
       <r>    2.0685    1.0000 </r>
       <r>    2.1338    1.0000 </r>
       <r>    2.1942    1.0000 </r>
       <r>    2.2237    1.0000 </r>
       <r>    2.2932    1.0000 </r>
       <r>    2.3243    1.0000 </r>
       <r>    2.3486    1.0000 </r>
       <r>    2.3834    1.0000 </r>
       <r>    2.4553    1.0000 </r>
       <r>    2.5382    1.0000 </r>
       <r>    2.5769    1.0000 </r>
       <r>    2.6021    1.0000 </r>
       <r>    2.6460    1.0000 </r>
       <r>    2.6957    1.0000 </r>
       <r>    2.7374    1.0000 </r>
       <r>    2.8157    1.0000 </r>
       <r>    2.9271    1.0000 </r>
       <r>    2.9724    1.0000 </r>
       <r>    3.2730    1.0000 </r>
       <r>    3.4833    1.0000 </r>
       <r>    3.6336    1.0000 </r>
       <r>    3.7644    1.0000 </r>
       <r>    4.1054    1.0000 </r>
       <r>    4.5666    1.0000 </r>
       <r>    4.6638    1.0000 </r>
       <r>    4.8543    1.0000 </r>
       <r>    5.0454    1.0000 </r>
       <r>    5.3003    1.0000 </r>
       <r>    5.5392    1.0000 </r>
       <r>    6.0631    1.0000 </r>
       <r>    8.6041   -0.0000 </r>
       <r>    8.8875   -0.0000 </r>
       <r>    9.2467   -0.0000 </r>
       <r>    9.6973    0.0000 </r>
       <r>    9.8245    0.0000 </r>
       <r>   10.0387    0.0000 </r>
       <r>   10.4767    0.0000 </r>
       <r>   11.1285    0.0000 </r>
       <r>   11.4306    0.0000 </r>
       <r>   11.8410    0.0000 </r>
       <r>   12.2778    0.0000 </r>
       <r>   12.6213    0.0000 </r>
      </set>
      <set comment="kpoint 152">
       <r>   -6.4835    1.0000 </r>
       <r>   -6.3667    1.0000 </r>
       <r>   -6.3425    1.0000 </r>
       <r>   -6.2868    1.0000 </r>
       <r>    0.2897    1.0000 </r>
       <r>    0.3787    1.0000 </r>
       <r>    0.4948    1.0000 </r>
       <r>    0.5830    1.0000 </r>
       <r>    0.7412    1.0000 </r>
       <r>    0.8454    1.0000 </r>
       <r>    0.9540    1.0000 </r>
       <r>    1.0225    1.0000 </r>
       <r>    1.1625    1.0000 </r>
       <r>    1.1853    1.0000 </r>
       <r>    1.2930    1.0000 </r>
       <r>    1.3546    1.0000 </r>
       <r>    1.4666    1.0000 </r>
       <r>    1.5200    1.0000 </r>
       <r>    1.6046    1.0000 </r>
       <r>    1.6448    1.0000 </r>
       <r>    1.6939    1.0000 </r>
       <r>    1.7302    1.0000 </r>
       <r>    1.8223    1.0000 </r>
       <r>    1.8800    1.0000 </r>
       <r>    1.8916    1.0000 </r>
       <r>    1.9831    1.0000 </r>
       <r>    2.0898    1.0000 </r>
       <r>    2.1541    1.0000 </r>
       <r>    2.1606    1.0000 </r>
       <r>    2.2355    1.0000 </r>
       <r>    2.2725    1.0000 </r>
       <r>    2.3174    1.0000 </r>
       <r>    2.3582    1.0000 </r>
       <r>    2.3803    1.0000 </r>
       <r>    2.4407    1.0000 </r>
       <r>    2.5120    1.0000 </r>
       <r>    2.5463    1.0000 </r>
       <r>    2.5991    1.0000 </r>
       <r>    2.6244    1.0000 </r>
       <r>    2.6734    1.0000 </r>
       <r>    2.7160    1.0000 </r>
       <r>    2.7558    1.0000 </r>
       <r>    2.9228    1.0000 </r>
       <r>    2.9505    1.0000 </r>
       <r>    3.2019    1.0000 </r>
       <r>    3.3324    1.0000 </r>
       <r>    3.4979    1.0000 </r>
       <r>    3.6273    1.0000 </r>
       <r>    3.9223    1.0000 </r>
       <r>    4.5369    1.0000 </r>
       <r>    4.6451    1.0000 </r>
       <r>    4.9621    1.0000 </r>
       <r>    5.0436    1.0000 </r>
       <r>    5.1430    1.0000 </r>
       <r>    5.5759    1.0000 </r>
       <r>    6.0963    1.0000 </r>
       <r>    8.7120   -0.0000 </r>
       <r>    8.9083   -0.0000 </r>
       <r>    9.2425   -0.0000 </r>
       <r>    9.4852    0.0000 </r>
       <r>    9.6362    0.0000 </r>
       <r>   10.1915    0.0000 </r>
       <r>   10.5905    0.0000 </r>
       <r>   10.8458    0.0000 </r>
       <r>   11.3320    0.0000 </r>
       <r>   11.7899    0.0000 </r>
       <r>   12.0632    0.0000 </r>
       <r>   12.3405    0.0000 </r>
      </set>
      <set comment="kpoint 153">
       <r>   -6.4156    1.0000 </r>
       <r>   -6.3647    1.0000 </r>
       <r>   -6.3421    1.0000 </r>
       <r>   -6.2836    1.0000 </r>
       <r>    0.3160    1.0000 </r>
       <r>    0.3667    1.0000 </r>
       <r>    0.4670    1.0000 </r>
       <r>    0.5713    1.0000 </r>
       <r>    0.8019    1.0000 </r>
       <r>    0.8753    1.0000 </r>
       <r>    0.9542    1.0000 </r>
       <r>    1.0096    1.0000 </r>
       <r>    1.1619    1.0000 </r>
       <r>    1.1889    1.0000 </r>
       <r>    1.3082    1.0000 </r>
       <r>    1.3518    1.0000 </r>
       <r>    1.5179    1.0000 </r>
       <r>    1.5486    1.0000 </r>
       <r>    1.6042    1.0000 </r>
       <r>    1.6770    1.0000 </r>
       <r>    1.7094    1.0000 </r>
       <r>    1.7414    1.0000 </r>
       <r>    1.8334    1.0000 </r>
       <r>    1.8735    1.0000 </r>
       <r>    1.9341    1.0000 </r>
       <r>    1.9806    1.0000 </r>
       <r>    2.1322    1.0000 </r>
       <r>    2.1537    1.0000 </r>
       <r>    2.1649    1.0000 </r>
       <r>    2.2262    1.0000 </r>
       <r>    2.2685    1.0000 </r>
       <r>    2.2986    1.0000 </r>
       <r>    2.3512    1.0000 </r>
       <r>    2.3966    1.0000 </r>
       <r>    2.4460    1.0000 </r>
       <r>    2.4723    1.0000 </r>
       <r>    2.5249    1.0000 </r>
       <r>    2.5679    1.0000 </r>
       <r>    2.6129    1.0000 </r>
       <r>    2.6705    1.0000 </r>
       <r>    2.7261    1.0000 </r>
       <r>    2.7665    1.0000 </r>
       <r>    2.8816    1.0000 </r>
       <r>    2.9141    1.0000 </r>
       <r>    3.1545    1.0000 </r>
       <r>    3.1992    1.0000 </r>
       <r>    3.4348    1.0000 </r>
       <r>    3.5047    1.0000 </r>
       <r>    4.0006    1.0000 </r>
       <r>    4.2661    1.0000 </r>
       <r>    4.7801    1.0000 </r>
       <r>    4.8839    1.0000 </r>
       <r>    5.0565    1.0000 </r>
       <r>    5.0763    1.0000 </r>
       <r>    5.7757    1.0000 </r>
       <r>    6.0617    1.0000 </r>
       <r>    8.8697   -0.0000 </r>
       <r>    8.9919   -0.0000 </r>
       <r>    9.1303   -0.0000 </r>
       <r>    9.2993    0.0000 </r>
       <r>    9.6709    0.0000 </r>
       <r>   10.1292    0.0000 </r>
       <r>   10.5504    0.0000 </r>
       <r>   10.7086    0.0000 </r>
       <r>   11.4132    0.0000 </r>
       <r>   11.7636    0.0000 </r>
       <r>   11.8581    0.0000 </r>
       <r>   12.0617    0.0000 </r>
      </set>
      <set comment="kpoint 154">
       <r>   -6.5738    1.0000 </r>
       <r>   -6.5499    1.0000 </r>
       <r>   -6.4687    1.0000 </r>
       <r>   -6.4583    1.0000 </r>
       <r>    0.2308    1.0000 </r>
       <r>    0.2644    1.0000 </r>
       <r>    0.4210    1.0000 </r>
       <r>    0.4465    1.0000 </r>
       <r>    0.5853    1.0000 </r>
       <r>    0.6199    1.0000 </r>
       <r>    0.9226    1.0000 </r>
       <r>    0.9380    1.0000 </r>
       <r>    1.0732    1.0000 </r>
       <r>    1.0927    1.0000 </r>
       <r>    1.2292    1.0000 </r>
       <r>    1.2623    1.0000 </r>
       <r>    1.3983    1.0000 </r>
       <r>    1.4443    1.0000 </r>
       <r>    1.6592    1.0000 </r>
       <r>    1.6812    1.0000 </r>
       <r>    1.7354    1.0000 </r>
       <r>    1.7592    1.0000 </r>
       <r>    1.8573    1.0000 </r>
       <r>    1.8731    1.0000 </r>
       <r>    1.9802    1.0000 </r>
       <r>    2.0038    1.0000 </r>
       <r>    2.0729    1.0000 </r>
       <r>    2.1001    1.0000 </r>
       <r>    2.2697    1.0000 </r>
       <r>    2.2807    1.0000 </r>
       <r>    2.3218    1.0000 </r>
       <r>    2.3386    1.0000 </r>
       <r>    2.3938    1.0000 </r>
       <r>    2.3949    1.0000 </r>
       <r>    2.4791    1.0000 </r>
       <r>    2.5499    1.0000 </r>
       <r>    2.6003    1.0000 </r>
       <r>    2.6494    1.0000 </r>
       <r>    2.7269    1.0000 </r>
       <r>    2.7415    1.0000 </r>
       <r>    2.8345    1.0000 </r>
       <r>    2.8516    1.0000 </r>
       <r>    2.9050    1.0000 </r>
       <r>    2.9433    1.0000 </r>
       <r>    3.2449    1.0000 </r>
       <r>    3.2709    1.0000 </r>
       <r>    3.7415    1.0000 </r>
       <r>    3.7566    1.0000 </r>
       <r>    4.8561    1.0000 </r>
       <r>    4.8934    1.0000 </r>
       <r>    5.3041    1.0000 </r>
       <r>    5.3305    1.0000 </r>
       <r>    5.6708    1.0000 </r>
       <r>    5.7154    1.0000 </r>
       <r>    6.1279    1.0000 </r>
       <r>    6.1813    1.0000 </r>
       <r>    8.0421   -0.0000 </r>
       <r>    8.1968   -0.0000 </r>
       <r>    8.4982   -0.0000 </r>
       <r>    8.7375   -0.0000 </r>
       <r>   10.4887    0.0000 </r>
       <r>   10.5809    0.0000 </r>
       <r>   11.0195    0.0000 </r>
       <r>   11.0563    0.0000 </r>
       <r>   11.4724    0.0000 </r>
       <r>   11.6009    0.0000 </r>
       <r>   11.9168    0.0000 </r>
       <r>   12.0525    0.0000 </r>
      </set>
      <set comment="kpoint 155">
       <r>   -6.5803    1.0000 </r>
       <r>   -6.5225    1.0000 </r>
       <r>   -6.4779    1.0000 </r>
       <r>   -6.4330    1.0000 </r>
       <r>    0.2354    1.0000 </r>
       <r>    0.2727    1.0000 </r>
       <r>    0.4293    1.0000 </r>
       <r>    0.4465    1.0000 </r>
       <r>    0.6223    1.0000 </r>
       <r>    0.6514    1.0000 </r>
       <r>    0.9089    1.0000 </r>
       <r>    0.9430    1.0000 </r>
       <r>    1.0710    1.0000 </r>
       <r>    1.0921    1.0000 </r>
       <r>    1.2365    1.0000 </r>
       <r>    1.2846    1.0000 </r>
       <r>    1.3802    1.0000 </r>
       <r>    1.4262    1.0000 </r>
       <r>    1.6237    1.0000 </r>
       <r>    1.6680    1.0000 </r>
       <r>    1.7176    1.0000 </r>
       <r>    1.7581    1.0000 </r>
       <r>    1.8416    1.0000 </r>
       <r>    1.8724    1.0000 </r>
       <r>    1.9766    1.0000 </r>
       <r>    1.9999    1.0000 </r>
       <r>    2.0791    1.0000 </r>
       <r>    2.1203    1.0000 </r>
       <r>    2.2444    1.0000 </r>
       <r>    2.2808    1.0000 </r>
       <r>    2.3312    1.0000 </r>
       <r>    2.3472    1.0000 </r>
       <r>    2.3963    1.0000 </r>
       <r>    2.4134    1.0000 </r>
       <r>    2.4682    1.0000 </r>
       <r>    2.5268    1.0000 </r>
       <r>    2.5899    1.0000 </r>
       <r>    2.6285    1.0000 </r>
       <r>    2.7219    1.0000 </r>
       <r>    2.7551    1.0000 </r>
       <r>    2.7936    1.0000 </r>
       <r>    2.8411    1.0000 </r>
       <r>    2.9252    1.0000 </r>
       <r>    2.9661    1.0000 </r>
       <r>    3.2628    1.0000 </r>
       <r>    3.3262    1.0000 </r>
       <r>    3.7749    1.0000 </r>
       <r>    3.8213    1.0000 </r>
       <r>    4.8356    1.0000 </r>
       <r>    4.9124    1.0000 </r>
       <r>    5.0605    1.0000 </r>
       <r>    5.2798    1.0000 </r>
       <r>    5.5669    1.0000 </r>
       <r>    5.7015    1.0000 </r>
       <r>    6.0102    1.0000 </r>
       <r>    6.0814    1.0000 </r>
       <r>    8.2078   -0.0000 </r>
       <r>    8.3755   -0.0000 </r>
       <r>    8.6623   -0.0000 </r>
       <r>    8.9320   -0.0000 </r>
       <r>   10.2087    0.0000 </r>
       <r>   10.4116    0.0000 </r>
       <r>   10.9737    0.0000 </r>
       <r>   11.1208    0.0000 </r>
       <r>   11.3794    0.0000 </r>
       <r>   11.6118    0.0000 </r>
       <r>   11.9526    0.0000 </r>
       <r>   12.1674    0.0000 </r>
      </set>
      <set comment="kpoint 156">
       <r>   -6.5706    1.0000 </r>
       <r>   -6.4805    1.0000 </r>
       <r>   -6.4651    1.0000 </r>
       <r>   -6.3942    1.0000 </r>
       <r>    0.2503    1.0000 </r>
       <r>    0.2910    1.0000 </r>
       <r>    0.4458    1.0000 </r>
       <r>    0.4663    1.0000 </r>
       <r>    0.6933    1.0000 </r>
       <r>    0.7364    1.0000 </r>
       <r>    0.8961    1.0000 </r>
       <r>    0.9468    1.0000 </r>
       <r>    1.0656    1.0000 </r>
       <r>    1.0877    1.0000 </r>
       <r>    1.2544    1.0000 </r>
       <r>    1.3249    1.0000 </r>
       <r>    1.3734    1.0000 </r>
       <r>    1.3928    1.0000 </r>
       <r>    1.5720    1.0000 </r>
       <r>    1.6267    1.0000 </r>
       <r>    1.6953    1.0000 </r>
       <r>    1.7462    1.0000 </r>
       <r>    1.8252    1.0000 </r>
       <r>    1.8570    1.0000 </r>
       <r>    1.9578    1.0000 </r>
       <r>    1.9778    1.0000 </r>
       <r>    2.0990    1.0000 </r>
       <r>    2.1312    1.0000 </r>
       <r>    2.2180    1.0000 </r>
       <r>    2.2621    1.0000 </r>
       <r>    2.3405    1.0000 </r>
       <r>    2.3537    1.0000 </r>
       <r>    2.3837    1.0000 </r>
       <r>    2.4275    1.0000 </r>
       <r>    2.4645    1.0000 </r>
       <r>    2.4849    1.0000 </r>
       <r>    2.5784    1.0000 </r>
       <r>    2.6127    1.0000 </r>
       <r>    2.7067    1.0000 </r>
       <r>    2.7370    1.0000 </r>
       <r>    2.7724    1.0000 </r>
       <r>    2.8285    1.0000 </r>
       <r>    2.9408    1.0000 </r>
       <r>    2.9606    1.0000 </r>
       <r>    3.3366    1.0000 </r>
       <r>    3.4285    1.0000 </r>
       <r>    3.8921    1.0000 </r>
       <r>    3.9596    1.0000 </r>
       <r>    4.5965    1.0000 </r>
       <r>    4.6894    1.0000 </r>
       <r>    4.9972    1.0000 </r>
       <r>    5.0891    1.0000 </r>
       <r>    5.3456    1.0000 </r>
       <r>    5.4836    1.0000 </r>
       <r>    5.8673    1.0000 </r>
       <r>    6.0071    1.0000 </r>
       <r>    8.5779   -0.0000 </r>
       <r>    8.7249   -0.0000 </r>
       <r>    9.0350   -0.0000 </r>
       <r>    9.2491   -0.0000 </r>
       <r>    9.7727    0.0000 </r>
       <r>   10.0160    0.0000 </r>
       <r>   10.8511    0.0000 </r>
       <r>   10.9265    0.0000 </r>
       <r>   11.4929    0.0000 </r>
       <r>   11.6330    0.0000 </r>
       <r>   12.1047    0.0000 </r>
       <r>   12.3389    0.0000 </r>
      </set>
      <set comment="kpoint 157">
       <r>   -6.5389    1.0000 </r>
       <r>   -6.4546    1.0000 </r>
       <r>   -6.4147    1.0000 </r>
       <r>   -6.3554    1.0000 </r>
       <r>    0.2691    1.0000 </r>
       <r>    0.3032    1.0000 </r>
       <r>    0.4876    1.0000 </r>
       <r>    0.5096    1.0000 </r>
       <r>    0.7090    1.0000 </r>
       <r>    0.7874    1.0000 </r>
       <r>    0.9492    1.0000 </r>
       <r>    0.9772    1.0000 </r>
       <r>    1.0781    1.0000 </r>
       <r>    1.0983    1.0000 </r>
       <r>    1.2572    1.0000 </r>
       <r>    1.3441    1.0000 </r>
       <r>    1.3806    1.0000 </r>
       <r>    1.4347    1.0000 </r>
       <r>    1.5504    1.0000 </r>
       <r>    1.5929    1.0000 </r>
       <r>    1.6773    1.0000 </r>
       <r>    1.7390    1.0000 </r>
       <r>    1.8121    1.0000 </r>
       <r>    1.8313    1.0000 </r>
       <r>    1.9330    1.0000 </r>
       <r>    1.9800    1.0000 </r>
       <r>    2.0789    1.0000 </r>
       <r>    2.1306    1.0000 </r>
       <r>    2.1979    1.0000 </r>
       <r>    2.2448    1.0000 </r>
       <r>    2.3135    1.0000 </r>
       <r>    2.3234    1.0000 </r>
       <r>    2.3596    1.0000 </r>
       <r>    2.3977    1.0000 </r>
       <r>    2.4682    1.0000 </r>
       <r>    2.4897    1.0000 </r>
       <r>    2.5821    1.0000 </r>
       <r>    2.6176    1.0000 </r>
       <r>    2.6791    1.0000 </r>
       <r>    2.7076    1.0000 </r>
       <r>    2.7612    1.0000 </r>
       <r>    2.8215    1.0000 </r>
       <r>    2.9359    1.0000 </r>
       <r>    2.9543    1.0000 </r>
       <r>    3.3685    1.0000 </r>
       <r>    3.4618    1.0000 </r>
       <r>    3.9908    1.0000 </r>
       <r>    4.0959    1.0000 </r>
       <r>    4.2293    1.0000 </r>
       <r>    4.3637    1.0000 </r>
       <r>    4.9416    1.0000 </r>
       <r>    5.0231    1.0000 </r>
       <r>    5.1466    1.0000 </r>
       <r>    5.2331    1.0000 </r>
       <r>    5.8254    1.0000 </r>
       <r>    6.0195    1.0000 </r>
       <r>    8.9220   -0.0000 </r>
       <r>    8.9444   -0.0000 </r>
       <r>    9.2356   -0.0000 </r>
       <r>    9.3319    0.0000 </r>
       <r>    9.5985    0.0000 </r>
       <r>    9.8033    0.0000 </r>
       <r>   10.5977    0.0000 </r>
       <r>   10.8624    0.0000 </r>
       <r>   11.5700    0.0000 </r>
       <r>   11.7095    0.0000 </r>
       <r>   12.3149    0.0000 </r>
       <r>   12.4630    0.0000 </r>
      </set>
      <set comment="kpoint 158">
       <r>   -6.4908    1.0000 </r>
       <r>   -6.4212    1.0000 </r>
       <r>   -6.3681    1.0000 </r>
       <r>   -6.3263    1.0000 </r>
       <r>    0.2782    1.0000 </r>
       <r>    0.3172    1.0000 </r>
       <r>    0.5269    1.0000 </r>
       <r>    0.5673    1.0000 </r>
       <r>    0.6749    1.0000 </r>
       <r>    0.7708    1.0000 </r>
       <r>    0.9835    1.0000 </r>
       <r>    1.0393    1.0000 </r>
       <r>    1.1505    1.0000 </r>
       <r>    1.1951    1.0000 </r>
       <r>    1.2428    1.0000 </r>
       <r>    1.3322    1.0000 </r>
       <r>    1.4152    1.0000 </r>
       <r>    1.4672    1.0000 </r>
       <r>    1.5796    1.0000 </r>
       <r>    1.5921    1.0000 </r>
       <r>    1.6841    1.0000 </r>
       <r>    1.7325    1.0000 </r>
       <r>    1.7982    1.0000 </r>
       <r>    1.8364    1.0000 </r>
       <r>    1.9119    1.0000 </r>
       <r>    1.9935    1.0000 </r>
       <r>    2.0874    1.0000 </r>
       <r>    2.1259    1.0000 </r>
       <r>    2.1698    1.0000 </r>
       <r>    2.2326    1.0000 </r>
       <r>    2.2694    1.0000 </r>
       <r>    2.2999    1.0000 </r>
       <r>    2.3429    1.0000 </r>
       <r>    2.3811    1.0000 </r>
       <r>    2.4534    1.0000 </r>
       <r>    2.4952    1.0000 </r>
       <r>    2.5743    1.0000 </r>
       <r>    2.5982    1.0000 </r>
       <r>    2.6535    1.0000 </r>
       <r>    2.6938    1.0000 </r>
       <r>    2.7415    1.0000 </r>
       <r>    2.7955    1.0000 </r>
       <r>    2.9279    1.0000 </r>
       <r>    2.9484    1.0000 </r>
       <r>    3.3068    1.0000 </r>
       <r>    3.3895    1.0000 </r>
       <r>    3.7589    1.0000 </r>
       <r>    3.8663    1.0000 </r>
       <r>    4.1415    1.0000 </r>
       <r>    4.3833    1.0000 </r>
       <r>    4.8231    1.0000 </r>
       <r>    4.9230    1.0000 </r>
       <r>    5.0892    1.0000 </r>
       <r>    5.2563    1.0000 </r>
       <r>    5.7977    1.0000 </r>
       <r>    6.0401    1.0000 </r>
       <r>    8.9023   -0.0000 </r>
       <r>    9.0882   -0.0000 </r>
       <r>    9.1981   -0.0000 </r>
       <r>    9.3356    0.0000 </r>
       <r>    9.5522    0.0000 </r>
       <r>    9.9363    0.0000 </r>
       <r>   10.5538    0.0000 </r>
       <r>   10.9237    0.0000 </r>
       <r>   11.4162    0.0000 </r>
       <r>   11.6158    0.0000 </r>
       <r>   12.3403    0.0000 </r>
       <r>   12.6212    0.0000 </r>
      </set>
      <set comment="kpoint 159">
       <r>   -6.4361    1.0000 </r>
       <r>   -6.3863    1.0000 </r>
       <r>   -6.3396    1.0000 </r>
       <r>   -6.3130    1.0000 </r>
       <r>    0.2898    1.0000 </r>
       <r>    0.3393    1.0000 </r>
       <r>    0.5123    1.0000 </r>
       <r>    0.5335    1.0000 </r>
       <r>    0.7351    1.0000 </r>
       <r>    0.7879    1.0000 </r>
       <r>    1.0016    1.0000 </r>
       <r>    1.0602    1.0000 </r>
       <r>    1.2033    1.0000 </r>
       <r>    1.2343    1.0000 </r>
       <r>    1.2756    1.0000 </r>
       <r>    1.3273    1.0000 </r>
       <r>    1.4699    1.0000 </r>
       <r>    1.5034    1.0000 </r>
       <r>    1.6111    1.0000 </r>
       <r>    1.6283    1.0000 </r>
       <r>    1.6966    1.0000 </r>
       <r>    1.7142    1.0000 </r>
       <r>    1.8071    1.0000 </r>
       <r>    1.8693    1.0000 </r>
       <r>    1.9141    1.0000 </r>
       <r>    1.9586    1.0000 </r>
       <r>    2.1115    1.0000 </r>
       <r>    2.1543    1.0000 </r>
       <r>    2.1865    1.0000 </r>
       <r>    2.2343    1.0000 </r>
       <r>    2.2533    1.0000 </r>
       <r>    2.2832    1.0000 </r>
       <r>    2.3513    1.0000 </r>
       <r>    2.3856    1.0000 </r>
       <r>    2.4272    1.0000 </r>
       <r>    2.5089    1.0000 </r>
       <r>    2.5224    1.0000 </r>
       <r>    2.5597    1.0000 </r>
       <r>    2.6225    1.0000 </r>
       <r>    2.6588    1.0000 </r>
       <r>    2.7352    1.0000 </r>
       <r>    2.7607    1.0000 </r>
       <r>    2.9088    1.0000 </r>
       <r>    2.9284    1.0000 </r>
       <r>    3.2153    1.0000 </r>
       <r>    3.2820    1.0000 </r>
       <r>    3.5241    1.0000 </r>
       <r>    3.6058    1.0000 </r>
       <r>    4.0297    1.0000 </r>
       <r>    4.2706    1.0000 </r>
       <r>    4.8273    1.0000 </r>
       <r>    4.9500    1.0000 </r>
       <r>    5.1576    1.0000 </r>
       <r>    5.3723    1.0000 </r>
       <r>    5.7420    1.0000 </r>
       <r>    6.0395    1.0000 </r>
       <r>    8.9198   -0.0000 </r>
       <r>    9.0839   -0.0000 </r>
       <r>    9.2269   -0.0000 </r>
       <r>    9.3002    0.0000 </r>
       <r>    9.5412    0.0000 </r>
       <r>   10.1120    0.0000 </r>
       <r>   10.7237    0.0000 </r>
       <r>   10.9316    0.0000 </r>
       <r>   11.0609    0.0000 </r>
       <r>   11.4103    0.0000 </r>
       <r>   12.1528    0.0000 </r>
       <r>   12.3454    0.0000 </r>
      </set>
      <set comment="kpoint 160">
       <r>   -6.3880    1.0000 </r>
       <r>   -6.3665    1.0000 </r>
       <r>   -6.3352    1.0000 </r>
       <r>   -6.3107    1.0000 </r>
       <r>    0.3216    1.0000 </r>
       <r>    0.3538    1.0000 </r>
       <r>    0.4470    1.0000 </r>
       <r>    0.4948    1.0000 </r>
       <r>    0.8230    1.0000 </r>
       <r>    0.8437    1.0000 </r>
       <r>    0.9915    1.0000 </r>
       <r>    1.0319    1.0000 </r>
       <r>    1.2034    1.0000 </r>
       <r>    1.2373    1.0000 </r>
       <r>    1.2970    1.0000 </r>
       <r>    1.3647    1.0000 </r>
       <r>    1.5089    1.0000 </r>
       <r>    1.5275    1.0000 </r>
       <r>    1.6353    1.0000 </r>
       <r>    1.6522    1.0000 </r>
       <r>    1.7083    1.0000 </r>
       <r>    1.7177    1.0000 </r>
       <r>    1.8179    1.0000 </r>
       <r>    1.8658    1.0000 </r>
       <r>    1.9243    1.0000 </r>
       <r>    1.9505    1.0000 </r>
       <r>    2.1281    1.0000 </r>
       <r>    2.1732    1.0000 </r>
       <r>    2.2021    1.0000 </r>
       <r>    2.2104    1.0000 </r>
       <r>    2.2517    1.0000 </r>
       <r>    2.2900    1.0000 </r>
       <r>    2.3662    1.0000 </r>
       <r>    2.3941    1.0000 </r>
       <r>    2.4387    1.0000 </r>
       <r>    2.4682    1.0000 </r>
       <r>    2.5283    1.0000 </r>
       <r>    2.5587    1.0000 </r>
       <r>    2.6068    1.0000 </r>
       <r>    2.6590    1.0000 </r>
       <r>    2.7215    1.0000 </r>
       <r>    2.7463    1.0000 </r>
       <r>    2.8713    1.0000 </r>
       <r>    2.8918    1.0000 </r>
       <r>    3.1594    1.0000 </r>
       <r>    3.1894    1.0000 </r>
       <r>    3.4150    1.0000 </r>
       <r>    3.4491    1.0000 </r>
       <r>    3.9774    1.0000 </r>
       <r>    4.0773    1.0000 </r>
       <r>    4.8830    1.0000 </r>
       <r>    4.9336    1.0000 </r>
       <r>    5.2740    1.0000 </r>
       <r>    5.4647    1.0000 </r>
       <r>    5.7443    1.0000 </r>
       <r>    5.9856    1.0000 </r>
       <r>    8.9986   -0.0000 </r>
       <r>    9.0558   -0.0000 </r>
       <r>    9.1882   -0.0000 </r>
       <r>    9.2603   -0.0000 </r>
       <r>    9.8089    0.0000 </r>
       <r>   10.2829    0.0000 </r>
       <r>   10.4596    0.0000 </r>
       <r>   10.6977    0.0000 </r>
       <r>   11.1679    0.0000 </r>
       <r>   11.3888    0.0000 </r>
       <r>   11.8465    0.0000 </r>
       <r>   11.9760    0.0000 </r>
      </set>
     </set>
    </set>
   </array>
  </eigenvalues>
  <separator name="orbital magnetization" >
   <v name="MAGDIPOLOUT">      0.00000000      0.00000000      0.00000000</v>
  </separator>
  <dos>
   <i name="efermi">      6.54787949 </i>
   <total>
    <array>
     <dimension dim="1">gridpoints</dimension>
     <dimension dim="2">spin</dimension>
     <field>energy</field>
     <field>total</field>
     <field>integrated</field>
     <set>
      <set comment="spin 1">
       <r>    -7.9643     0.0000     0.0000 </r>
       <r>    -7.8888     0.0000     0.0000 </r>
       <r>    -7.8133     0.0000     0.0000 </r>
       <r>    -7.7377    -0.0000    -0.0000 </r>
       <r>    -7.6622    -0.0000    -0.0000 </r>
       <r>    -7.5867    -0.0000    -0.0000 </r>
       <r>    -7.5111    -0.0000    -0.0000 </r>
       <r>    -7.4356    -0.0000    -0.0000 </r>
       <r>    -7.3601    -0.0000    -0.0000 </r>
       <r>    -7.2846    -0.0000    -0.0000 </r>
       <r>    -7.2090    -0.0001    -0.0000 </r>
       <r>    -7.1335    -0.0025    -0.0002 </r>
       <r>    -7.0580    -0.0267    -0.0022 </r>
       <r>    -6.9824    -0.0362    -0.0049 </r>
       <r>    -6.9069     0.4184     0.0267 </r>
       <r>    -6.8314     1.5862     0.1465 </r>
       <r>    -6.7559     2.8295     0.3602 </r>
       <r>    -6.6803     4.0053     0.6627 </r>
       <r>    -6.6048     5.4507     1.0744 </r>
       <r>    -6.5293     7.7718     1.6614 </r>
       <r>    -6.4537    12.9342     2.6383 </r>
       <r>    -6.3782    23.0525     4.3794 </r>
       <r>    -6.3027    28.8514     6.5586 </r>
       <r>    -6.2271    17.4696     7.8780 </r>
       <r>    -6.1516     2.5991     8.0743 </r>
       <r>    -6.0761    -0.7964     8.0142 </r>
       <r>    -6.0006    -0.1791     8.0007 </r>
       <r>    -5.9250    -0.0087     8.0000 </r>
       <r>    -5.8495    -0.0001     8.0000 </r>
       <r>    -5.7740    -0.0000     8.0000 </r>
       <r>    -5.6984    -0.0000     8.0000 </r>
       <r>    -5.6229    -0.0000     8.0000 </r>
       <r>    -5.5474     0.0000     8.0000 </r>
       <r>    -5.4719     0.0000     8.0000 </r>
       <r>    -5.3963     0.0000     8.0000 </r>
       <r>    -5.3208     0.0000     8.0000 </r>
       <r>    -5.2453     0.0000     8.0000 </r>
       <r>    -5.1697     0.0000     8.0000 </r>
       <r>    -5.0942     0.0000     8.0000 </r>
       <r>    -5.0187     0.0000     8.0000 </r>
       <r>    -4.9431     0.0000     8.0000 </r>
       <r>    -4.8676     0.0000     8.0000 </r>
       <r>    -4.7921     0.0000     8.0000 </r>
       <r>    -4.7166     0.0000     8.0000 </r>
       <r>    -4.6410     0.0000     8.0000 </r>
       <r>    -4.5655     0.0000     8.0000 </r>
       <r>    -4.4900     0.0000     8.0000 </r>
       <r>    -4.4144     0.0000     8.0000 </r>
       <r>    -4.3389     0.0000     8.0000 </r>
       <r>    -4.2634     0.0000     8.0000 </r>
       <r>    -4.1879     0.0000     8.0000 </r>
       <r>    -4.1123     0.0000     8.0000 </r>
       <r>    -4.0368     0.0000     8.0000 </r>
       <r>    -3.9613     0.0000     8.0000 </r>
       <r>    -3.8857     0.0000     8.0000 </r>
       <r>    -3.8102     0.0000     8.0000 </r>
       <r>    -3.7347     0.0000     8.0000 </r>
       <r>    -3.6591     0.0000     8.0000 </r>
       <r>    -3.5836     0.0000     8.0000 </r>
       <r>    -3.5081     0.0000     8.0000 </r>
       <r>    -3.4326     0.0000     8.0000 </r>
       <r>    -3.3570     0.0000     8.0000 </r>
       <r>    -3.2815     0.0000     8.0000 </r>
       <r>    -3.2060     0.0000     8.0000 </r>
       <r>    -3.1304     0.0000     8.0000 </r>
       <r>    -3.0549     0.0000     8.0000 </r>
       <r>    -2.9794     0.0000     8.0000 </r>
       <r>    -2.9039     0.0000     8.0000 </r>
       <r>    -2.8283     0.0000     8.0000 </r>
       <r>    -2.7528     0.0000     8.0000 </r>
       <r>    -2.6773     0.0000     8.0000 </r>
       <r>    -2.6017     0.0000     8.0000 </r>
       <r>    -2.5262     0.0000     8.0000 </r>
       <r>    -2.4507     0.0000     8.0000 </r>
       <r>    -2.3751     0.0000     8.0000 </r>
       <r>    -2.2996     0.0000     8.0000 </r>
       <r>    -2.2241     0.0000     8.0000 </r>
       <r>    -2.1486     0.0000     8.0000 </r>
       <r>    -2.0730     0.0000     8.0000 </r>
       <r>    -1.9975     0.0000     8.0000 </r>
       <r>    -1.9220     0.0000     8.0000 </r>
       <r>    -1.8464     0.0000     8.0000 </r>
       <r>    -1.7709     0.0000     8.0000 </r>
       <r>    -1.6954     0.0000     8.0000 </r>
       <r>    -1.6199     0.0000     8.0000 </r>
       <r>    -1.5443     0.0000     8.0000 </r>
       <r>    -1.4688     0.0000     8.0000 </r>
       <r>    -1.3933     0.0000     8.0000 </r>
       <r>    -1.3177     0.0000     8.0000 </r>
       <r>    -1.2422     0.0000     8.0000 </r>
       <r>    -1.1667     0.0000     8.0000 </r>
       <r>    -1.0911     0.0000     8.0000 </r>
       <r>    -1.0156     0.0000     8.0000 </r>
       <r>    -0.9401     0.0000     8.0000 </r>
       <r>    -0.8646     0.0000     8.0000 </r>
       <r>    -0.7890     0.0000     8.0000 </r>
       <r>    -0.7135    -0.0000     8.0000 </r>
       <r>    -0.6380    -0.0000     8.0000 </r>
       <r>    -0.5624    -0.0000     8.0000 </r>
       <r>    -0.4869    -0.0000     8.0000 </r>
       <r>    -0.4114    -0.0000     8.0000 </r>
       <r>    -0.3359    -0.0000     8.0000 </r>
       <r>    -0.2603    -0.0000     8.0000 </r>
       <r>    -0.1848    -0.0001     8.0000 </r>
       <r>    -0.1093    -0.0037     7.9997 </r>
       <r>    -0.0337    -0.0688     7.9945 </r>
       <r>     0.0418    -0.3106     7.9711 </r>
       <r>     0.1173     0.7325     8.0264 </r>
       <r>     0.1929     6.6412     8.5280 </r>
       <r>     0.2684    15.1710     9.6738 </r>
       <r>     0.3439    18.3325    11.0585 </r>
       <r>     0.4194    16.4661    12.3022 </r>
       <r>     0.4950    16.7196    13.5650 </r>
       <r>     0.5705    16.0288    14.7756 </r>
       <r>     0.6460    15.6276    15.9560 </r>
       <r>     0.7216    17.1788    17.2535 </r>
       <r>     0.7971    18.1457    18.6240 </r>
       <r>     0.8726    18.8511    20.0478 </r>
       <r>     0.9481    19.9528    21.5548 </r>
       <r>     1.0237    23.1516    23.3035 </r>
       <r>     1.0992    24.0271    25.1182 </r>
       <r>     1.1747    23.8268    26.9178 </r>
       <r>     1.2503    24.3453    28.7566 </r>
       <r>     1.3258    24.6408    30.6177 </r>
       <r>     1.4013    25.5751    32.5494 </r>
       <r>     1.4769    25.7502    34.4943 </r>
       <r>     1.5524    29.0355    36.6873 </r>
       <r>     1.6279    32.1865    39.1184 </r>
       <r>     1.7034    33.2647    41.6308 </r>
       <r>     1.7790    31.6038    44.0178 </r>
       <r>     1.8545    29.8138    46.2697 </r>
       <r>     1.9300    31.7344    48.6665 </r>
       <r>     2.0056    31.9766    51.0817 </r>
       <r>     2.0811    31.9996    53.4986 </r>
       <r>     2.1566    33.4272    56.0233 </r>
       <r>     2.2321    38.0111    58.8943 </r>
       <r>     2.3077    42.7243    62.1212 </r>
       <r>     2.3832    42.5192    65.3327 </r>
       <r>     2.4587    42.1344    68.5151 </r>
       <r>     2.5343    42.4014    71.7176 </r>
       <r>     2.6098    42.8927    74.9573 </r>
       <r>     2.6853    42.8394    78.1929 </r>
       <r>     2.7608    38.0383    81.0659 </r>
       <r>     2.8364    29.0192    83.2577 </r>
       <r>     2.9119    26.8885    85.2886 </r>
       <r>     2.9874    24.5565    87.1433 </r>
       <r>     3.0630    14.9860    88.2752 </r>
       <r>     3.1385     9.9108    89.0238 </r>
       <r>     3.2140    11.0794    89.8606 </r>
       <r>     3.2896    10.8455    90.6798 </r>
       <r>     3.3651     8.6485    91.3330 </r>
       <r>     3.4406     8.1052    91.9452 </r>
       <r>     3.5161     8.4171    92.5809 </r>
       <r>     3.5917     7.3644    93.1371 </r>
       <r>     3.6672     6.2958    93.6126 </r>
       <r>     3.7427     6.5111    94.1044 </r>
       <r>     3.8183     7.1138    94.6417 </r>
       <r>     3.8938     6.6800    95.1463 </r>
       <r>     3.9693     6.5437    95.6405 </r>
       <r>     4.0448     6.1068    96.1017 </r>
       <r>     4.1204     6.6113    96.6011 </r>
       <r>     4.1959     6.8618    97.1194 </r>
       <r>     4.2714     6.0719    97.5780 </r>
       <r>     4.3470     6.3182    98.0552 </r>
       <r>     4.4225     6.6198    98.5552 </r>
       <r>     4.4980     6.2647    99.0283 </r>
       <r>     4.5736     5.5143    99.4448 </r>
       <r>     4.6491     6.0194    99.8995 </r>
       <r>     4.7246     6.8197   100.4145 </r>
       <r>     4.8001     6.9550   100.9399 </r>
       <r>     4.8757     7.6427   101.5171 </r>
       <r>     4.9512     7.9010   102.1139 </r>
       <r>     5.0267     7.2706   102.6630 </r>
       <r>     5.1023     7.5125   103.2304 </r>
       <r>     5.1778     7.4706   103.7947 </r>
       <r>     5.2533     6.6412   104.2963 </r>
       <r>     5.3288     7.6375   104.8731 </r>
       <r>     5.4044     8.0017   105.4775 </r>
       <r>     5.4799     7.0452   106.0096 </r>
       <r>     5.5554     7.2244   106.5553 </r>
       <r>     5.6310     8.4749   107.1954 </r>
       <r>     5.7065     7.7943   107.7841 </r>
       <r>     5.7820     6.6481   108.2862 </r>
       <r>     5.8576     5.9179   108.7332 </r>
       <r>     5.9331     6.2470   109.2050 </r>
       <r>     6.0086     7.7172   109.7879 </r>
       <r>     6.0841     8.0634   110.3969 </r>
       <r>     6.1597     6.8242   110.9123 </r>
       <r>     6.2352     5.4948   111.3274 </r>
       <r>     6.3107     4.0150   111.6306 </r>
       <r>     6.3863     2.6585   111.8314 </r>
       <r>     6.4618     1.5838   111.9510 </r>
       <r>     6.5373     0.6157   111.9975 </r>
       <r>     6.6128     0.1228   112.0068 </r>
       <r>     6.6884     0.0409   112.0099 </r>
       <r>     6.7639     0.0516   112.0138 </r>
       <r>     6.8394     0.1695   112.0266 </r>
       <r>     6.9150     0.2246   112.0436 </r>
       <r>     6.9905     0.1881   112.0578 </r>
       <r>     7.0660     0.2564   112.0771 </r>
       <r>     7.1416     0.2891   112.0990 </r>
       <r>     7.2171     0.3543   112.1257 </r>
       <r>     7.2926     0.4913   112.1628 </r>
       <r>     7.3681     0.6115   112.2090 </r>
       <r>     7.4437     0.4471   112.2428 </r>
       <r>     7.5192     0.3749   112.2711 </r>
       <r>     7.5947     1.0053   112.3470 </r>
       <r>     7.6703     1.3976   112.4526 </r>
       <r>     7.7458     1.3307   112.5531 </r>
       <r>     7.8213     1.6181   112.6753 </r>
       <r>     7.8968     2.0152   112.8275 </r>
       <r>     7.9724     2.4376   113.0116 </r>
       <r>     8.0479     3.5154   113.2771 </r>
       <r>     8.1234     4.5033   113.6173 </r>
       <r>     8.1990     3.8911   113.9112 </r>
       <r>     8.2745     2.4689   114.0976 </r>
       <r>     8.3500     2.4312   114.2813 </r>
       <r>     8.4256     3.4944   114.5452 </r>
       <r>     8.5011     4.2255   114.8643 </r>
       <r>     8.5766     4.9049   115.2348 </r>
       <r>     8.6521     5.1756   115.6257 </r>
       <r>     8.7277     4.9074   115.9964 </r>
       <r>     8.8032     3.9015   116.2910 </r>
       <r>     8.8787     3.8257   116.5800 </r>
       <r>     8.9543     4.6322   116.9299 </r>
       <r>     9.0298     5.3593   117.3346 </r>
       <r>     9.1053     5.1184   117.7212 </r>
       <r>     9.1808     4.3985   118.0535 </r>
       <r>     9.2564     5.2710   118.4516 </r>
       <r>     9.3319     4.9457   118.8251 </r>
       <r>     9.4074     3.6442   119.1004 </r>
       <r>     9.4830     3.1238   119.3363 </r>
       <r>     9.5585     3.0453   119.5663 </r>
       <r>     9.6340     3.4118   119.8240 </r>
       <r>     9.7096     3.5825   120.0946 </r>
       <r>     9.7851     3.9778   120.3950 </r>
       <r>     9.8606     3.9336   120.6921 </r>
       <r>     9.9361     4.0044   120.9946 </r>
       <r>    10.0117     3.9221   121.2908 </r>
       <r>    10.0872     3.1133   121.5259 </r>
       <r>    10.1627     2.5566   121.7191 </r>
       <r>    10.2383     3.3036   121.9686 </r>
       <r>    10.3138     4.2662   122.2908 </r>
       <r>    10.3893     4.5515   122.6346 </r>
       <r>    10.4648     4.0268   122.9387 </r>
       <r>    10.5404     3.8009   123.2258 </r>
       <r>    10.6159     4.3586   123.5550 </r>
       <r>    10.6914     5.2306   123.9501 </r>
       <r>    10.7670     5.9370   124.3985 </r>
       <r>    10.8425     7.2273   124.9443 </r>
       <r>    10.9180     7.8410   125.5366 </r>
       <r>    10.9936     8.2570   126.1602 </r>
       <r>    11.0691     8.3096   126.7878 </r>
       <r>    11.1446     6.8539   127.3055 </r>
       <r>    11.2201     6.1968   127.7735 </r>
       <r>    11.2957     6.2718   128.2473 </r>
       <r>    11.3712     6.7802   128.7594 </r>
       <r>    11.4467     6.6896   129.2646 </r>
       <r>    11.5223     6.3426   129.7437 </r>
       <r>    11.5978     6.6562   130.2464 </r>
       <r>    11.6733     6.7250   130.7543 </r>
       <r>    11.7488     6.3729   131.2357 </r>
       <r>    11.8244     6.1512   131.7003 </r>
       <r>    11.8999     6.0025   132.1537 </r>
       <r>    11.9754     5.4630   132.5663 </r>
       <r>    12.0510     5.7189   132.9982 </r>
       <r>    12.1265     5.8746   133.4419 </r>
       <r>    12.2020     5.4525   133.8537 </r>
       <r>    12.2776     5.0728   134.2369 </r>
       <r>    12.3531     4.3670   134.5667 </r>
       <r>    12.4286     3.0210   134.7949 </r>
       <r>    12.5041     2.4286   134.9783 </r>
       <r>    12.5797     2.4436   135.1629 </r>
       <r>    12.6552     2.6082   135.3599 </r>
       <r>    12.7307     2.4452   135.5446 </r>
       <r>    12.8063     1.8267   135.6825 </r>
       <r>    12.8818     1.4563   135.7925 </r>
       <r>    12.9573     0.8520   135.8569 </r>
       <r>    13.0328     0.3299   135.8818 </r>
       <r>    13.1084     0.3947   135.9116 </r>
       <r>    13.1839     0.3694   135.9395 </r>
       <r>    13.2594     0.2492   135.9583 </r>
       <r>    13.3350     0.0864   135.9649 </r>
       <r>    13.4105     0.0847   135.9712 </r>
       <r>    13.4860     0.1299   135.9811 </r>
       <r>    13.5616     0.1171   135.9899 </r>
       <r>    13.6371     0.0701   135.9952 </r>
       <r>    13.7126     0.0521   135.9991 </r>
       <r>    13.7881     0.0150   136.0003 </r>
       <r>    13.8637    -0.0028   136.0001 </r>
       <r>    13.9392    -0.0008   136.0000 </r>
       <r>    14.0147    -0.0000   136.0000 </r>
       <r>    14.0903    -0.0000   136.0000 </r>
       <r>    14.1658    -0.0000   136.0000 </r>
       <r>    14.2413    -0.0000   136.0000 </r>
       <r>    14.3168    -0.0000   136.0000 </r>
       <r>    14.3924     0.0000   136.0000 </r>
       <r>    14.4679     0.0000   136.0000 </r>
       <r>    14.5434     0.0000   136.0000 </r>
       <r>    14.6190     0.0000   136.0000 </r>
       <r>    14.6945     0.0000   136.0000 </r>
      </set>
     </set>
    </array>
   </total>
  </dos>
 </calculation>
 <structure name="finalpos" >
  <crystal>
   <varray name="basis" >
    <v>       4.18247445       0.00000000       0.04408670 </v>
    <v>       0.00000000       6.78794518       0.00000000 </v>
    <v>      -2.63378168       0.00000000       7.88454898 </v>
   </varray>
   <i name="volume">    224.63373727 </i>
   <varray name="rec_basis" >
    <v>       0.23825400       0.00000000       0.07958718 </v>
    <v>       0.00000000       0.14731999       0.00000000 </v>
    <v>      -0.00133220       0.00000000       0.12638532 </v>
   </varray>
  </crystal>
  <varray name="positions" >
   <v>       0.56248857       0.47540865       0.82873073 </v>
   <v>       0.32633889       0.52366353       0.12475047 </v>
   <v>       0.22496514       0.34823390       0.44925162 </v>
   <v>       0.43751143       0.97540862       0.67126927 </v>
   <v>       0.67366111       0.02366350       0.37524953 </v>
   <v>       0.80660516       0.63994349       0.55791625 </v>
   <v>       0.19339481       0.13994351       0.94208375 </v>
   <v>       0.77503483       0.84823390       0.05074838 </v>
   <v>       0.80895514       0.25285123       0.14060502 </v>
   <v>       0.19104489       0.75285124       0.35939499 </v>
   <v>       0.17951603       0.75989921       0.85251090 </v>
   <v>       0.82048400       0.25989921       0.64748910 </v>
  </varray>
 </structure>
</modeling>
