Ag8Se1S3                                
   1.00000000000000     
     4.1739664955414604    0.0400035571132315    0.0310585666984472
     0.0772516867433457    6.7547023208924388   -0.0456741533590455
    -2.6614476238719642   -0.0715881373890663    7.7374245593505462
   Ag   Se   S 
     8     1     3
Direct
  0.6029016515697572  0.4691049507537848  0.8391937917020348
  0.3498391357722569  0.5347277887017935  0.1398292054796262
  0.2332593529117240  0.3614766049536330  0.4585036242369002
  0.4240794003410884  0.9807460417182348  0.6646932565459361
  0.5860602856977781  0.0136974742734283  0.3429659811081034
  0.7881788781785392  0.6485006712559835  0.5534455647761243
  0.1965876256683627  0.1441105999568532  0.9437631436667940
  0.7999913967218815  0.8449874915334248  0.0526422622605902
  0.8157702299411064  0.2503252622448713  0.1502120728716033
  0.1770142310215259  0.7483936905926410  0.3648948451126180
  0.1949711255469816  0.7542013518033730  0.8513901333565680
  0.8313466866289844  0.2497280782119793  0.6384661368831034
 
  0.00000000E+00  0.00000000E+00  0.00000000E+00
  0.00000000E+00  0.00000000E+00  0.00000000E+00
  0.00000000E+00  0.00000000E+00  0.00000000E+00
  0.00000000E+00  0.00000000E+00  0.00000000E+00
  0.00000000E+00  0.00000000E+00  0.00000000E+00
  0.00000000E+00  0.00000000E+00  0.00000000E+00
  0.00000000E+00  0.00000000E+00  0.00000000E+00
  0.00000000E+00  0.00000000E+00  0.00000000E+00
  0.00000000E+00  0.00000000E+00  0.00000000E+00
  0.00000000E+00  0.00000000E+00  0.00000000E+00
  0.00000000E+00  0.00000000E+00  0.00000000E+00
  0.00000000E+00  0.00000000E+00  0.00000000E+00
