Ag8Se1S3                                
   1.00000000000000     
     4.1739664955414604    0.0400035571132315    0.0310585666984472
     0.0772516867433457    6.7547023208924388   -0.0456741533590455
    -2.6614476238719642   -0.0715881373890663    7.7374245593505462
   Ag   Se   S 
     8     1     3
Direct
  0.6029016515697592  0.4691049507537883  0.8391937917020371
  0.3498391357722568  0.5347277887017938  0.1398292054796286
  0.2332593529117233  0.3614766049536300  0.4585036242368972
  0.4240794003410855  0.9807460417182341  0.6646932565459380
  0.5860602856977764  0.0136974742734282  0.3429659811081009
  0.7881788781785417  0.6485006712559809  0.5534455647761263
  0.1965876256683643  0.1441105999568535  0.9437631436667928
  0.7999913967218788  0.8449874915334235  0.0526422622605907
  0.8157702299411085  0.2503252622448713  0.1502120728716037
  0.1770142310215235  0.7483936905926427  0.3648948451126159
  0.1949711255469850  0.7542013518033741  0.8513901333565670
  0.8313466866289829  0.2497280782119802  0.6384661368831033
 
  0.00000000E+00  0.00000000E+00  0.00000000E+00
  0.00000000E+00  0.00000000E+00  0.00000000E+00
  0.00000000E+00  0.00000000E+00  0.00000000E+00
  0.00000000E+00  0.00000000E+00  0.00000000E+00
  0.00000000E+00  0.00000000E+00  0.00000000E+00
  0.00000000E+00  0.00000000E+00  0.00000000E+00
  0.00000000E+00  0.00000000E+00  0.00000000E+00
  0.00000000E+00  0.00000000E+00  0.00000000E+00
  0.00000000E+00  0.00000000E+00  0.00000000E+00
  0.00000000E+00  0.00000000E+00  0.00000000E+00
  0.00000000E+00  0.00000000E+00  0.00000000E+00
  0.00000000E+00  0.00000000E+00  0.00000000E+00
