  12  12   0   0
  0.1822281E+02  0.4174274E-09  0.6755299E-09  0.8182675E-09  0.5000000E-15
  1.000000000000000E-004
  CAR 
 Ag2SeS                                  
     15.08409542     -7.71212971  301      6.74613847      1.00000000
     -7.712  0.0000E+00  0.0000E+00
     -7.636  0.0000E+00  0.0000E+00
     -7.560  0.0000E+00  0.0000E+00
     -7.484  0.0000E+00  0.0000E+00
     -7.408  0.0000E+00  0.0000E+00
     -7.332  0.0000E+00  0.0000E+00
     -7.256  0.0000E+00  0.0000E+00
     -7.180  0.0000E+00  0.0000E+00
     -7.104  0.0000E+00  0.0000E+00
     -7.028  0.0000E+00  0.0000E+00
     -6.952  0.0000E+00  0.0000E+00
     -6.876  0.0000E+00  0.0000E+00
     -6.800 -0.3436E-66 -0.2611E-67
     -6.724 -0.1460E-09 -0.1109E-10
     -6.648  0.5983E+01  0.4546E+00
     -6.572  0.5220E+01  0.8512E+00
     -6.496  0.3911E+01  0.1147E+01
     -6.420  0.3345E+01  0.1401E+01
     -6.344  0.3225E+01  0.1647E+01
     -6.268  0.3292E+01  0.1897E+01
     -6.192  0.1034E+02  0.2685E+01
     -6.116  0.1422E+02  0.3768E+01
     -6.040  0.1656E+02  0.5025E+01
     -5.964  0.2289E+02  0.6771E+01
     -5.888  0.1616E+02  0.8000E+01
     -5.812  0.0000E+00  0.8000E+01
     -5.736  0.0000E+00  0.8000E+01
     -5.660  0.0000E+00  0.8000E+01
     -5.584  0.0000E+00  0.8000E+01
     -5.508  0.0000E+00  0.8000E+01
     -5.433  0.0000E+00  0.8000E+01
     -5.357  0.0000E+00  0.8000E+01
     -5.281  0.0000E+00  0.8000E+01
     -5.205  0.0000E+00  0.8000E+01
     -5.129  0.0000E+00  0.8000E+01
     -5.053  0.0000E+00  0.8000E+01
     -4.977  0.0000E+00  0.8000E+01
     -4.901  0.0000E+00  0.8000E+01
     -4.825  0.0000E+00  0.8000E+01
     -4.749  0.0000E+00  0.8000E+01
     -4.673  0.0000E+00  0.8000E+01
     -4.597  0.0000E+00  0.8000E+01
     -4.521  0.0000E+00  0.8000E+01
     -4.445  0.0000E+00  0.8000E+01
     -4.369  0.0000E+00  0.8000E+01
     -4.293  0.0000E+00  0.8000E+01
     -4.217  0.0000E+00  0.8000E+01
     -4.141  0.0000E+00  0.8000E+01
     -4.065  0.0000E+00  0.8000E+01
     -3.989  0.0000E+00  0.8000E+01
     -3.913  0.0000E+00  0.8000E+01
     -3.837  0.0000E+00  0.8000E+01
     -3.761  0.0000E+00  0.8000E+01
     -3.685  0.0000E+00  0.8000E+01
     -3.609  0.0000E+00  0.8000E+01
     -3.533  0.0000E+00  0.8000E+01
     -3.457  0.0000E+00  0.8000E+01
     -3.381  0.0000E+00  0.8000E+01
     -3.305  0.0000E+00  0.8000E+01
     -3.229  0.0000E+00  0.8000E+01
     -3.153  0.0000E+00  0.8000E+01
     -3.077  0.0000E+00  0.8000E+01
     -3.001  0.0000E+00  0.8000E+01
     -2.925  0.0000E+00  0.8000E+01
     -2.849  0.0000E+00  0.8000E+01
     -2.773  0.0000E+00  0.8000E+01
     -2.697  0.0000E+00  0.8000E+01
     -2.621  0.0000E+00  0.8000E+01
     -2.545  0.0000E+00  0.8000E+01
     -2.469  0.0000E+00  0.8000E+01
     -2.393  0.0000E+00  0.8000E+01
     -2.317  0.0000E+00  0.8000E+01
     -2.241  0.0000E+00  0.8000E+01
     -2.165  0.0000E+00  0.8000E+01
     -2.089  0.0000E+00  0.8000E+01
     -2.013  0.0000E+00  0.8000E+01
     -1.937  0.0000E+00  0.8000E+01
     -1.861  0.0000E+00  0.8000E+01
     -1.785  0.0000E+00  0.8000E+01
     -1.709  0.0000E+00  0.8000E+01
     -1.633  0.0000E+00  0.8000E+01
     -1.557  0.0000E+00  0.8000E+01
     -1.481  0.0000E+00  0.8000E+01
     -1.405  0.0000E+00  0.8000E+01
     -1.329  0.0000E+00  0.8000E+01
     -1.253  0.0000E+00  0.8000E+01
     -1.177  0.0000E+00  0.8000E+01
     -1.101  0.0000E+00  0.8000E+01
     -1.025  0.0000E+00  0.8000E+01
     -0.949  0.0000E+00  0.8000E+01
     -0.873  0.0000E+00  0.8000E+01
     -0.797  0.0000E+00  0.8000E+01
     -0.721  0.0000E+00  0.8000E+01
     -0.645  0.0000E+00  0.8000E+01
     -0.569  0.0000E+00  0.8000E+01
     -0.493  0.0000E+00  0.8000E+01
     -0.417  0.0000E+00  0.8000E+01
     -0.341  0.0000E+00  0.8000E+01
     -0.265  0.0000E+00  0.8000E+01
     -0.189  0.0000E+00  0.8000E+01
     -0.113  0.0000E+00  0.8000E+01
     -0.037  0.0000E+00  0.8000E+01
      0.039  0.0000E+00  0.8000E+01
      0.115  0.0000E+00  0.8000E+01
      0.191 -0.7870E-72  0.8000E+01
      0.267 -0.2406E-12  0.8000E+01
      0.343  0.6200E+00  0.8047E+01
      0.419  0.1490E+01  0.8160E+01
      0.495  0.2596E+02  0.1013E+02
      0.570  0.1790E+02  0.1148E+02
      0.646  0.2002E+02  0.1299E+02
      0.722  0.1290E+02  0.1398E+02
      0.798  0.2190E+02  0.1564E+02
      0.874  0.1741E+02  0.1697E+02
      0.950  0.1529E+02  0.1813E+02
      1.026  0.1489E+02  0.1926E+02
      1.102  0.2655E+02  0.2128E+02
      1.178  0.1952E+02  0.2275E+02
      1.254  0.2264E+02  0.2447E+02
      1.330  0.2328E+02  0.2625E+02
      1.406  0.1730E+02  0.2757E+02
      1.482  0.1736E+02  0.2889E+02
      1.558  0.3128E+02  0.3127E+02
      1.634  0.2530E+02  0.3318E+02
      1.710  0.2858E+02  0.3535E+02
      1.786  0.2646E+02  0.3737E+02
      1.862  0.2524E+02  0.3929E+02
      1.938  0.2231E+02  0.4098E+02
      2.014  0.3272E+02  0.4347E+02
      2.090  0.3800E+02  0.4636E+02
      2.166  0.3208E+02  0.4879E+02
      2.242  0.2584E+02  0.5076E+02
      2.318  0.3368E+02  0.5332E+02
      2.394  0.2685E+02  0.5538E+02
      2.470  0.4423E+02  0.5874E+02
      2.546  0.3916E+02  0.6174E+02
      2.622  0.4079E+02  0.6484E+02
      2.698  0.3261E+02  0.6732E+02
      2.774  0.3239E+02  0.6980E+02
      2.850  0.3949E+02  0.7280E+02
      2.926  0.3941E+02  0.7580E+02
      3.002  0.4102E+02  0.7892E+02
      3.078  0.3480E+02  0.8156E+02
      3.154  0.3485E+02  0.8421E+02
      3.230  0.2098E+02  0.8579E+02
      3.306  0.2060E+02  0.8736E+02
      3.382  0.1859E+02  0.8878E+02
      3.458  0.1307E+02  0.8978E+02
      3.534  0.1396E+02  0.9084E+02
      3.610  0.1204E+02  0.9176E+02
      3.686  0.8868E+01  0.9243E+02
      3.762  0.7826E+01  0.9303E+02
      3.838  0.7414E+01  0.9359E+02
      3.914  0.6848E+01  0.9411E+02
      3.990  0.6715E+01  0.9462E+02
      4.066  0.3810E+01  0.9491E+02
      4.142  0.6261E+01  0.9538E+02
      4.218  0.3542E+01  0.9565E+02
      4.294  0.4068E+01  0.9596E+02
      4.370  0.5702E+01  0.9639E+02
      4.446  0.4370E+01  0.9672E+02
      4.522  0.3609E+01  0.9700E+02
      4.598  0.5781E+01  0.9744E+02
      4.674  0.6191E+01  0.9791E+02
      4.750  0.9716E+01  0.9865E+02
      4.826  0.4011E+01  0.9895E+02
      4.902  0.5476E+01  0.9936E+02
      4.978  0.5658E+01  0.9979E+02
      5.054  0.4315E+01  0.1001E+03
      5.130  0.6660E+01  0.1006E+03
      5.206  0.6627E+01  0.1011E+03
      5.282  0.1126E+02  0.1020E+03
      5.358  0.6040E+01  0.1024E+03
      5.434  0.5084E+01  0.1028E+03
      5.510  0.5157E+01  0.1032E+03
      5.586  0.4391E+01  0.1036E+03
      5.662  0.6054E+01  0.1040E+03
      5.738  0.1088E+02  0.1048E+03
      5.814  0.9085E+01  0.1055E+03
      5.890  0.5337E+01  0.1059E+03
      5.966  0.5838E+01  0.1064E+03
      6.042  0.5838E+01  0.1068E+03
      6.118  0.6100E+01  0.1073E+03
      6.194  0.8061E+01  0.1079E+03
      6.270  0.7276E+01  0.1085E+03
      6.346  0.6608E+01  0.1090E+03
      6.422  0.9775E+01  0.1097E+03
      6.498  0.4738E+01  0.1101E+03
      6.574  0.7561E+01  0.1106E+03
      6.649  0.8529E+01  0.1113E+03
      6.725  0.6062E+01  0.1117E+03
      6.801  0.6504E+01  0.1122E+03
      6.877  0.1168E+01  0.1123E+03
      6.953  0.9056E+00  0.1124E+03
      7.029  0.1100E+01  0.1125E+03
      7.105  0.5952E+00  0.1125E+03
      7.181  0.1369E+01  0.1126E+03
      7.257  0.4525E+00  0.1127E+03
      7.333  0.5362E+00  0.1127E+03
      7.409  0.1247E+01  0.1128E+03
      7.485  0.3966E+00  0.1128E+03
      7.561  0.1315E+01  0.1129E+03
      7.637  0.6486E+00  0.1130E+03
      7.713  0.8008E+00  0.1130E+03
      7.789  0.1408E+01  0.1132E+03
      7.865  0.4316E+00  0.1132E+03
      7.941  0.1195E+01  0.1133E+03
      8.017  0.4104E+01  0.1136E+03
      8.093  0.4748E+01  0.1139E+03
      8.169  0.4566E+01  0.1143E+03
      8.245  0.3091E+01  0.1145E+03
      8.321  0.2731E+01  0.1147E+03
      8.397  0.2170E+01  0.1149E+03
      8.473  0.2406E+01  0.1151E+03
      8.549  0.2430E+01  0.1153E+03
      8.625  0.1458E+01  0.1154E+03
      8.701  0.2232E+01  0.1156E+03
      8.777  0.2675E+01  0.1158E+03
      8.853  0.2861E+01  0.1160E+03
      8.929  0.1271E+01  0.1161E+03
      9.005  0.3177E+01  0.1163E+03
      9.081  0.3856E+01  0.1166E+03
      9.157  0.3266E+01  0.1169E+03
      9.233  0.5065E+01  0.1172E+03
      9.309  0.5363E+01  0.1176E+03
      9.385  0.3549E+01  0.1179E+03
      9.461  0.3034E+01  0.1182E+03
      9.537  0.5630E+01  0.1186E+03
      9.613  0.3158E+01  0.1188E+03
      9.689  0.3796E+01  0.1191E+03
      9.765  0.3376E+01  0.1194E+03
      9.841  0.4059E+01  0.1197E+03
      9.917  0.2477E+01  0.1199E+03
      9.993  0.1408E+01  0.1200E+03
     10.069  0.5515E+01  0.1204E+03
     10.145  0.4956E+01  0.1208E+03
     10.221  0.3827E+01  0.1211E+03
     10.297  0.3267E+01  0.1213E+03
     10.373  0.2078E+01  0.1215E+03
     10.449  0.2380E+01  0.1216E+03
     10.525  0.1900E+01  0.1218E+03
     10.601  0.2444E+01  0.1220E+03
     10.677  0.1261E+01  0.1221E+03
     10.753  0.2874E+01  0.1223E+03
     10.829  0.3290E+01  0.1225E+03
     10.905  0.3337E+01  0.1228E+03
     10.981  0.4611E+01  0.1231E+03
     11.057  0.3928E+01  0.1234E+03
     11.133  0.5874E+01  0.1239E+03
     11.209  0.8796E+01  0.1246E+03
     11.285  0.9031E+01  0.1252E+03
     11.361  0.7740E+01  0.1258E+03
     11.437  0.6505E+01  0.1263E+03
     11.513  0.9377E+01  0.1270E+03
     11.589  0.4735E+01  0.1274E+03
     11.665  0.3618E+01  0.1277E+03
     11.741  0.6846E+01  0.1282E+03
     11.817  0.9364E+01  0.1289E+03
     11.893  0.5193E+01  0.1293E+03
     11.969  0.6620E+01  0.1298E+03
     12.045  0.6611E+01  0.1303E+03
     12.121  0.8398E+01  0.1309E+03
     12.197  0.7352E+01  0.1315E+03
     12.273  0.4233E+01  0.1318E+03
     12.349  0.5499E+01  0.1322E+03
     12.425  0.6461E+01  0.1327E+03
     12.501  0.4739E+01  0.1331E+03
     12.577  0.2132E+01  0.1333E+03
     12.652  0.4921E+01  0.1336E+03
     12.728  0.1937E+01  0.1338E+03
     12.804  0.3300E+01  0.1340E+03
     12.880  0.1436E+01  0.1341E+03
     12.956  0.3671E+01  0.1344E+03
     13.032  0.2217E+01  0.1346E+03
     13.108  0.1785E+01  0.1347E+03
     13.184  0.2505E+01  0.1349E+03
     13.260  0.5849E+01  0.1354E+03
     13.336  0.5114E+01  0.1357E+03
     13.412  0.1707E+01  0.1359E+03
     13.488  0.5632E+00  0.1359E+03
     13.564 -0.1185E-80  0.1359E+03
     13.640 -0.4589E-16  0.1359E+03
     13.716  0.1927E+00  0.1359E+03
     13.792 -0.2773E-98  0.1359E+03
     13.868 -0.2753E-24  0.1359E+03
     13.944  0.1276E+00  0.1359E+03
     14.020  0.5914E+00  0.1360E+03
     14.096  0.1881E+00  0.1360E+03
     14.172  0.0000E+00  0.1360E+03
     14.248  0.0000E+00  0.1360E+03
     14.324  0.0000E+00  0.1360E+03
     14.400  0.0000E+00  0.1360E+03
     14.476  0.0000E+00  0.1360E+03
     14.552  0.0000E+00  0.1360E+03
     14.628  0.0000E+00  0.1360E+03
     14.704  0.0000E+00  0.1360E+03
     14.780  0.0000E+00  0.1360E+03
     14.856  0.0000E+00  0.1360E+03
     14.932  0.0000E+00  0.1360E+03
     15.008  0.0000E+00  0.1360E+03
     15.084  0.0000E+00  0.1360E+03
