   12   12    1    1
  0.1822281E+02  0.4174274E-09  0.6755298E-09  0.8182675E-09  0.5000000E-15
  1.000000000000000E-004
  CAR 
 Ag2SeS                                  
    112    140     68
 
  0.0000000E+00  0.0000000E+00  0.0000000E+00  0.7142857E-02
    1       -6.675938   1.000000
    2       -6.192594   1.000000
    3       -6.039365   1.000000
    4       -5.953377   1.000000
    5        0.480823   1.000000
    6        0.557495   1.000000
    7        0.575313   1.000000
    8        0.756945   1.000000
    9        0.785527   1.000000
   10        1.066734   1.000000
   11        1.085041   1.000000
   12        1.154915   1.000000
   13        1.208288   1.000000
   14        1.279414   1.000000
   15        1.494546   1.000000
   16        1.549385   1.000000
   17        1.618960   1.000000
   18        1.654800   1.000000
   19        1.741191   1.000000
   20        1.789319   1.000000
   21        1.976536   1.000000
   22        2.046762   1.000000
   23        2.084216   1.000000
   24        2.141112   1.000000
   25        2.247120   1.000000
   26        2.270126   1.000000
   27        2.284890   1.000000
   28        2.327705   1.000000
   29        2.405547   1.000000
   30        2.467907   1.000000
   31        2.501523   1.000000
   32        2.558252   1.000000
   33        2.602778   1.000000
   34        2.693180   1.000000
   35        2.814277   1.000000
   36        2.851082   1.000000
   37        2.894354   1.000000
   38        2.974474   1.000000
   39        2.993353   1.000000
   40        3.049457   1.000000
   41        3.092643   1.000000
   42        3.135575   1.000000
   43        3.253583   1.000000
   44        3.360539   1.000000
   45        3.376564   1.000000
   46        3.524323   1.000000
   47        3.804270   1.000000
   48        3.896345   1.000000
   49        4.702612   1.000000
   50        4.901249   1.000000
   51        5.268768   1.000000
   52        5.720781   1.000000
   53        6.178983   1.000000
   54        6.419810   1.000000
   55        6.547195   1.000000
   56        6.738367   0.983959
   57        6.754814  -0.005378
   58        7.990342   0.000000
   59        9.282177   0.000000
   60        9.467725   0.000000
   61       10.048692   0.000000
   62       11.168323   0.000000
   63       11.503710   0.000000
   64       11.825789   0.000000
   65       12.065479   0.000000
   66       12.426214   0.000000
   67       13.208791   0.000000
   68       13.311830   0.000000
 
  0.2631579E-01  0.0000000E+00  0.0000000E+00  0.7142857E-02
    1       -6.673272   1.000000
    2       -6.192093   1.000000
    3       -6.038716   1.000000
    4       -5.953311   1.000000
    5        0.480452   1.000000
    6        0.558756   1.000000
    7        0.577889   1.000000
    8        0.733423   1.000000
    9        0.819104   1.000000
   10        1.061707   1.000000
   11        1.082897   1.000000
   12        1.156633   1.000000
   13        1.211896   1.000000
   14        1.279016   1.000000
   15        1.500247   1.000000
   16        1.548099   1.000000
   17        1.615753   1.000000
   18        1.659565   1.000000
   19        1.739421   1.000000
   20        1.790108   1.000000
   21        1.975224   1.000000
   22        2.045015   1.000000
   23        2.073264   1.000000
   24        2.134538   1.000000
   25        2.233619   1.000000
   26        2.273732   1.000000
   27        2.279379   1.000000
   28        2.346745   1.000000
   29        2.413373   1.000000
   30        2.468608   1.000000
   31        2.502624   1.000000
   32        2.551872   1.000000
   33        2.607230   1.000000
   34        2.697905   1.000000
   35        2.811081   1.000000
   36        2.849288   1.000000
   37        2.897345   1.000000
   38        2.973552   1.000000
   39        2.992245   1.000000
   40        3.046833   1.000000
   41        3.092363   1.000000
   42        3.130318   1.000000
   43        3.246277   1.000000
   44        3.357344   1.000000
   45        3.385198   1.000000
   46        3.528758   1.000000
   47        3.811300   1.000000
   48        3.898494   1.000000
   49        4.702440   1.000000
   50        4.887620   1.000000
   51        5.248531   1.000000
   52        5.716421   1.000000
   53        6.158538   1.000000
   54        6.389510   1.000000
   55        6.578519   1.000000
   56        6.718018   1.000257
   57        6.765503  -0.009764
   58        8.032935   0.000000
   59        9.305635   0.000000
   60        9.494506   0.000000
   61       10.048879   0.000000
   62       11.155092   0.000000
   63       11.485685   0.000000
   64       11.810997   0.000000
   65       12.043210   0.000000
   66       12.390087   0.000000
   67       13.207441   0.000000
   68       13.336453   0.000000
 
  0.5263158E-01  0.0000000E+00  0.0000000E+00  0.7142857E-02
    1       -6.665293   1.000000
    2       -6.190597   1.000000
    3       -6.036793   1.000000
    4       -5.953116   1.000000
    5        0.479346   1.000000
    6        0.560849   1.000000
    7        0.586301   1.000000
    8        0.712840   1.000000
    9        0.869822   1.000000
   10        1.048140   1.000000
   11        1.077699   1.000000
   12        1.159056   1.000000
   13        1.221544   1.000000
   14        1.280520   1.000000
   15        1.515569   1.000000
   16        1.544787   1.000000
   17        1.609374   1.000000
   18        1.670064   1.000000
   19        1.734502   1.000000
   20        1.792434   1.000000
   21        1.970541   1.000000
   22        2.030967   1.000000
   23        2.055724   1.000000
   24        2.117402   1.000000
   25        2.208706   1.000000
   26        2.261396   1.000000
   27        2.287453   1.000000
   28        2.384129   1.000000
   29        2.429457   1.000000
   30        2.469827   1.000000
   31        2.506193   1.000000
   32        2.544189   1.000000
   33        2.614065   1.000000
   34        2.710214   1.000000
   35        2.800964   1.000000
   36        2.846558   1.000000
   37        2.903982   1.000000
   38        2.970533   1.000000
   39        2.988949   1.000000
   40        3.039448   1.000000
   41        3.091308   1.000000
   42        3.113854   1.000000
   43        3.234408   1.000000
   44        3.346070   1.000000
   45        3.404269   1.000000
   46        3.542400   1.000000
   47        3.830923   1.000000
   48        3.904650   1.000000
   49        4.699786   1.000000
   50        4.849334   1.000000
   51        5.195116   1.000000
   52        5.701773   1.000000
   53        6.091433   1.000000
   54        6.338551   1.000000
   55        6.632087   1.000000
   56        6.670155   1.000000
   57        6.799516  -0.000000
   58        8.150381   0.000000
   59        9.374339   0.000000
   60        9.569114   0.000000
   61       10.048972   0.000000
   62       11.117139   0.000000
   63       11.432546   0.000000
   64       11.766361   0.000000
   65       11.982718   0.000000
   66       12.292996   0.000000
   67       13.199472   0.000000
   68       13.401681   0.000000
 
  0.7894737E-01  0.0000000E+00  0.0000000E+00  0.7142857E-02
    1       -6.652130   1.000000
    2       -6.188127   1.000000
    3       -6.033679   1.000000
    4       -5.952810   1.000000
    5        0.477308   1.000000
    6        0.562631   1.000000
    7        0.599782   1.000000
    8        0.708109   1.000000
    9        0.923198   1.000000
   10        1.029931   1.000000
   11        1.070266   1.000000
   12        1.158700   1.000000
   13        1.234413   1.000000
   14        1.289739   1.000000
   15        1.529235   1.000000
   16        1.547942   1.000000
   17        1.603195   1.000000
   18        1.680465   1.000000
   19        1.728543   1.000000
   20        1.796203   1.000000
   21        1.958822   1.000000
   22        1.998912   1.000000
   23        2.052190   1.000000
   24        2.093198   1.000000
   25        2.183595   1.000000
   26        2.244776   1.000000
   27        2.296483   1.000000
   28        2.423676   1.000000
   29        2.440377   1.000000
   30        2.469022   1.000000
   31        2.517957   1.000000
   32        2.547363   1.000000
   33        2.618722   1.000000
   34        2.725703   1.000000
   35        2.784792   1.000000
   36        2.844925   1.000000
   37        2.910268   1.000000
   38        2.965932   1.000000
   39        2.983114   1.000000
   40        3.028486   1.000000
   41        3.079925   1.000000
   42        3.097686   1.000000
   43        3.228364   1.000000
   44        3.328918   1.000000
   45        3.421833   1.000000
   46        3.565146   1.000000
   47        3.859305   1.000000
   48        3.913953   1.000000
   49        4.687405   1.000000
   50        4.793616   1.000000
   51        5.126984   1.000000
   52        5.667062   1.000000
   53        5.996129   1.000000
   54        6.281948   1.000000
   55        6.598502   1.000000
   56        6.670020   1.000000
   57        6.883675  -0.000000
   58        8.320638   0.000000
   59        9.481454   0.000000
   60        9.675487   0.000000
   61       10.048913   0.000000
   62       11.060153   0.000000
   63       11.348815   0.000000
   64       11.691192   0.000000
   65       11.896070   0.000000
   66       12.159255   0.000000
   67       13.179645   0.000000
   68       13.479307   0.000000
 
  0.1052632E+00  0.0000000E+00  0.0000000E+00  0.7142857E-02
    1       -6.634008   1.000000
    2       -6.184719   1.000000
    3       -6.029511   1.000000
    4       -5.952424   1.000000
    5        0.474106   1.000000
    6        0.565934   1.000000
    7        0.615652   1.000000
    8        0.720413   1.000000
    9        0.969269   1.000000
   10        1.011457   1.000000
   11        1.062888   1.000000
   12        1.155256   1.000000
   13        1.250843   1.000000
   14        1.308861   1.000000
   15        1.523471   1.000000
   16        1.571850   1.000000
   17        1.598763   1.000000
   18        1.682854   1.000000
   19        1.728047   1.000000
   20        1.801334   1.000000
   21        1.932056   1.000000
   22        1.975626   1.000000
   23        2.050497   1.000000
   24        2.068268   1.000000
   25        2.161576   1.000000
   26        2.224775   1.000000
   27        2.304148   1.000000
   28        2.434348   1.000000
   29        2.463741   1.000000
   30        2.469588   1.000000
   31        2.541183   1.000000
   32        2.560181   1.000000
   33        2.621252   1.000000
   34        2.738139   1.000000
   35        2.766935   1.000000
   36        2.843355   1.000000
   37        2.910331   1.000000
   38        2.963404   1.000000
   39        2.974298   1.000000
   40        3.015681   1.000000
   41        3.048743   1.000000
   42        3.098914   1.000000
   43        3.227900   1.000000
   44        3.308631   1.000000
   45        3.433129   1.000000
   46        3.594622   1.000000
   47        3.890924   1.000000
   48        3.925380   1.000000
   49        4.653326   1.000000
   50        4.730216   1.000000
   51        5.066235   1.000000
   52        5.592985   1.000000
   53        5.919892   1.000000
   54        6.205873   1.000000
   55        6.525861   1.000000
   56        6.675128   1.000000
   57        7.016483  -0.000000
   58        8.523002   0.000000
   59        9.610947   0.000000
   60        9.783908   0.000000
   61       10.057048   0.000000
   62       10.994203   0.000000
   63       11.245880   0.000000
   64       11.586607   0.000000
   65       11.790682   0.000000
   66       12.014781   0.000000
   67       13.137801   0.000000
   68       13.437743   0.000000
 
  0.1315789E+00  0.0000000E+00  0.0000000E+00  0.7142857E-02
    1       -6.611246   1.000000
    2       -6.180426   1.000000
    3       -6.024489   1.000000
    4       -5.952003   1.000000
    5        0.470297   1.000000
    6        0.572700   1.000000
    7        0.632261   1.000000
    8        0.747288   1.000000
    9        0.978197   1.000000
   10        1.006198   1.000000
   11        1.064851   1.000000
   12        1.153613   1.000000
   13        1.274600   1.000000
   14        1.334348   1.000000
   15        1.513338   1.000000
   16        1.586167   1.000000
   17        1.608336   1.000000
   18        1.673050   1.000000
   19        1.737442   1.000000
   20        1.807913   1.000000
   21        1.898191   1.000000
   22        1.961908   1.000000
   23        2.032978   1.000000
   24        2.062637   1.000000
   25        2.143203   1.000000
   26        2.201966   1.000000
   27        2.309552   1.000000
   28        2.428376   1.000000
   29        2.471855   1.000000
   30        2.493555   1.000000
   31        2.566650   1.000000
   32        2.579042   1.000000
   33        2.622910   1.000000
   34        2.731449   1.000000
   35        2.762294   1.000000
   36        2.840440   1.000000
   37        2.897807   1.000000
   38        2.955571   1.000000
   39        2.972742   1.000000
   40        3.004947   1.000000
   41        3.018196   1.000000
   42        3.105251   1.000000
   43        3.229106   1.000000
   44        3.287794   1.000000
   45        3.437895   1.000000
   46        3.626326   1.000000
   47        3.916658   1.000000
   48        3.940567   1.000000
   49        4.591538   1.000000
   50        4.667238   1.000000
   51        5.024322   1.000000
   52        5.484427   1.000000
   53        5.883872   1.000000
   54        6.105461   1.000000
   55        6.454761   1.000000
   56        6.666059   1.000000
   57        7.175997   0.000000
   58        8.742345   0.000000
   59        9.729629   0.000000
   60        9.839451   0.000000
   61       10.108085   0.000000
   62       10.931286   0.000000
   63       11.144883   0.000000
   64       11.460717   0.000000
   65       11.669568   0.000000
   66       11.882646   0.000000
   67       13.061605   0.000000
   68       13.231202   0.000000
 
  0.1578947E+00  0.0000000E+00  0.0000000E+00  0.7142857E-02
    1       -6.584231   1.000000
    2       -6.175316   1.000000
    3       -6.018865   1.000000
    4       -5.951590   1.000000
    5        0.467290   1.000000
    6        0.582947   1.000000
    7        0.649300   1.000000
    8        0.784594   1.000000
    9        0.958273   1.000000
   10        0.998728   1.000000
   11        1.072739   1.000000
   12        1.163850   1.000000
   13        1.306749   1.000000
   14        1.361902   1.000000
   15        1.504169   1.000000
   16        1.579306   1.000000
   17        1.631394   1.000000
   18        1.661613   1.000000
   19        1.751464   1.000000
   20        1.816242   1.000000
   21        1.870583   1.000000
   22        1.949941   1.000000
   23        2.013478   1.000000
   24        2.066294   1.000000
   25        2.128945   1.000000
   26        2.177996   1.000000
   27        2.312159   1.000000
   28        2.425734   1.000000
   29        2.475609   1.000000
   30        2.515279   1.000000
   31        2.582085   1.000000
   32        2.602252   1.000000
   33        2.627016   1.000000
   34        2.710703   1.000000
   35        2.765786   1.000000
   36        2.834800   1.000000
   37        2.874786   1.000000
   38        2.938165   1.000000
   39        2.967900   1.000000
   40        2.992933   1.000000
   41        3.013032   1.000000
   42        3.115472   1.000000
   43        3.226683   1.000000
   44        3.270350   1.000000
   45        3.437105   1.000000
   46        3.654552   1.000000
   47        3.928153   1.000000
   48        3.960809   1.000000
   49        4.509684   1.000000
   50        4.614334   1.000000
   51        4.983193   1.000000
   52        5.386950   1.000000
   53        5.871862   1.000000
   54        5.988107   1.000000
   55        6.384536   1.000000
   56        6.649011   1.000000
   57        7.349460   0.000000
   58        8.967694   0.000000
   59        9.761145   0.000000
   60        9.842048   0.000000
   61       10.207248   0.000000
   62       10.878278   0.000000
   63       11.076091   0.000000
   64       11.331369   0.000000
   65       11.547078   0.000000
   66       11.779404   0.000000
   67       12.946497   0.000000
   68       13.050743   0.000000
 
  0.1842105E+00  0.0000000E+00  0.0000000E+00  0.7142857E-02
    1       -6.553427   1.000000
    2       -6.169469   1.000000
    3       -6.012937   1.000000
    4       -5.951231   1.000000
    5        0.466420   1.000000
    6        0.594921   1.000000
    7        0.666645   1.000000
    8        0.828031   1.000000
    9        0.934639   1.000000
   10        0.983759   1.000000
   11        1.069208   1.000000
   12        1.186037   1.000000
   13        1.340662   1.000000
   14        1.389913   1.000000
   15        1.499972   1.000000
   16        1.564847   1.000000
   17        1.630252   1.000000
   18        1.673105   1.000000
   19        1.766768   1.000000
   20        1.826142   1.000000
   21        1.856238   1.000000
   22        1.938559   1.000000
   23        2.004088   1.000000
   24        2.069321   1.000000
   25        2.119480   1.000000
   26        2.155710   1.000000
   27        2.312320   1.000000
   28        2.427970   1.000000
   29        2.479735   1.000000
   30        2.529815   1.000000
   31        2.586677   1.000000
   32        2.615488   1.000000
   33        2.638226   1.000000
   34        2.693180   1.000000
   35        2.764492   1.000000
   36        2.822886   1.000000
   37        2.849196   1.000000
   38        2.920626   1.000000
   39        2.948157   1.000000
   40        2.977163   1.000000
   41        3.036828   1.000000
   42        3.129711   1.000000
   43        3.214392   1.000000
   44        3.261198   1.000000
   45        3.432245   1.000000
   46        3.672215   1.000000
   47        3.934098   1.000000
   48        3.972796   1.000000
   49        4.422866   1.000000
   50        4.581876   1.000000
   51        4.906891   1.000000
   52        5.348234   1.000000
   53        5.847915   1.000000
   54        5.884887   1.000000
   55        6.310923   1.000000
   56        6.626410   1.000000
   57        7.530075   0.000000
   58        9.188897   0.000000
   59        9.677958   0.000000
   60        9.812232   0.000000
   61       10.283546   0.000000
   62       10.833976   0.000000
   63       11.058460   0.000000
   64       11.219070   0.000000
   65       11.461151   0.000000
   66       11.726062   0.000000
   67       12.809443   0.000000
   68       12.887759   0.000000
 
  0.2105263E+00  0.0000000E+00  0.0000000E+00  0.7142857E-02
    1       -6.519407   1.000000
    2       -6.162977   1.000000
    3       -6.007059   1.000000
    4       -5.950958   1.000000
    5        0.468332   1.000000
    6        0.605695   1.000000
    7        0.683967   1.000000
    8        0.872123   1.000000
    9        0.909943   1.000000
   10        0.970704   1.000000
   11        1.060412   1.000000
   12        1.209884   1.000000
   13        1.359569   1.000000
   14        1.423231   1.000000
   15        1.499545   1.000000
   16        1.546907   1.000000
   17        1.621517   1.000000
   18        1.692532   1.000000
   19        1.782306   1.000000
   20        1.835280   1.000000
   21        1.860886   1.000000
   22        1.930698   1.000000
   23        2.005740   1.000000
   24        2.070111   1.000000
   25        2.112705   1.000000
   26        2.140480   1.000000
   27        2.311145   1.000000
   28        2.433108   1.000000
   29        2.483755   1.000000
   30        2.536849   1.000000
   31        2.585063   1.000000
   32        2.614466   1.000000
   33        2.644229   1.000000
   34        2.689791   1.000000
   35        2.758554   1.000000
   36        2.799055   1.000000
   37        2.831012   1.000000
   38        2.905187   1.000000
   39        2.925462   1.000000
   40        2.965233   1.000000
   41        3.062737   1.000000
   42        3.147798   1.000000
   43        3.195745   1.000000
   44        3.256062   1.000000
   45        3.425972   1.000000
   46        3.672748   1.000000
   47        3.939828   1.000000
   48        3.969006   1.000000
   49        4.349988   1.000000
   50        4.571947   1.000000
   51        4.793236   1.000000
   52        5.372365   1.000000
   53        5.732875   1.000000
   54        5.876554   1.000000
   55        6.230786   1.000000
   56        6.599436   1.000000
   57        7.713578   0.000000
   58        9.384476   0.000000
   59        9.552604   0.000000
   60        9.714726   0.000000
   61       10.265589   0.000000
   62       10.790624   0.000000
   63       11.044198   0.000000
   64       11.178514   0.000000
   65       11.430989   0.000000
   66       11.771062   0.000000
   67       12.670439   0.000000
   68       12.741784   0.000000
 
  0.2368421E+00  0.0000000E+00  0.0000000E+00  0.7142857E-02
    1       -6.482810   1.000000
    2       -6.155951   1.000000
    3       -6.001629   1.000000
    4       -5.950796   1.000000
    5        0.472961   1.000000
    6        0.611515   1.000000
    7        0.700898   1.000000
    8        0.884318   1.000000
    9        0.906922   1.000000
   10        0.968511   1.000000
   11        1.056234   1.000000
   12        1.231169   1.000000
   13        1.358732   1.000000
   14        1.454500   1.000000
   15        1.487427   1.000000
   16        1.545672   1.000000
   17        1.619479   1.000000
   18        1.708677   1.000000
   19        1.796603   1.000000
   20        1.845632   1.000000
   21        1.881738   1.000000
   22        1.931191   1.000000
   23        2.014699   1.000000
   24        2.070244   1.000000
   25        2.105071   1.000000
   26        2.137822   1.000000
   27        2.309810   1.000000
   28        2.437916   1.000000
   29        2.485884   1.000000
   30        2.536305   1.000000
   31        2.582052   1.000000
   32        2.603575   1.000000
   33        2.640169   1.000000
   34        2.695548   1.000000
   35        2.748602   1.000000
   36        2.772733   1.000000
   37        2.817870   1.000000
   38        2.889939   1.000000
   39        2.906452   1.000000
   40        2.954621   1.000000
   41        3.081601   1.000000
   42        3.152933   1.000000
   43        3.194428   1.000000
   44        3.245388   1.000000
   45        3.422620   1.000000
   46        3.656864   1.000000
   47        3.909502   1.000000
   48        3.984227   1.000000
   49        4.305299   1.000000
   50        4.579177   1.000000
   51        4.668223   1.000000
   52        5.431963   1.000000
   53        5.619476   1.000000
   54        5.874745   1.000000
   55        6.143259   1.000000
   56        6.568918   1.000000
   57        7.896865   0.000000
   58        9.369003   0.000000
   59        9.474514   0.000000
   60        9.677698   0.000000
   61       10.151837   0.000000
   62       10.722941   0.000000
   63       10.986024   0.000000
   64       11.242190   0.000000
   65       11.451367   0.000000
   66       11.935779   0.000000
   67       12.542947   0.000000
   68       12.616011   0.000000
 
  0.2631579E+00  0.0000000E+00  0.0000000E+00  0.7142857E-02
    1       -6.444363   1.000000
    2       -6.148506   1.000000
    3       -5.997083   1.000000
    4       -5.950753   1.000000
    5        0.479707   1.000000
    6        0.608966   1.000000
    7        0.716778   1.000000
    8        0.860601   1.000000
    9        0.918276   1.000000
   10        0.981366   1.000000
   11        1.068577   1.000000
   12        1.249750   1.000000
   13        1.346414   1.000000
   14        1.437111   1.000000
   15        1.502463   1.000000
   16        1.557403   1.000000
   17        1.625860   1.000000
   18        1.723521   1.000000
   19        1.809035   1.000000
   20        1.861274   1.000000
   21        1.908075   1.000000
   22        1.944028   1.000000
   23        2.025651   1.000000
   24        2.069641   1.000000
   25        2.106043   1.000000
   26        2.143046   1.000000
   27        2.309064   1.000000
   28        2.439270   1.000000
   29        2.482286   1.000000
   30        2.530911   1.000000
   31        2.576579   1.000000
   32        2.594130   1.000000
   33        2.629668   1.000000
   34        2.697139   1.000000
   35        2.728857   1.000000
   36        2.758821   1.000000
   37        2.806899   1.000000
   38        2.873583   1.000000
   39        2.894093   1.000000
   40        2.943827   1.000000
   41        3.089797   1.000000
   42        3.131660   1.000000
   43        3.220784   1.000000
   44        3.225806   1.000000
   45        3.426172   1.000000
   46        3.634673   1.000000
   47        3.844230   1.000000
   48        4.023422   1.000000
   49        4.288225   1.000000
   50        4.540452   1.000000
   51        4.603930   1.000000
   52        5.478336   1.000000
   53        5.550848   1.000000
   54        5.867956   1.000000
   55        6.050563   1.000000
   56        6.535651   1.000000
   57        8.077270   0.000000
   58        9.182224   0.000000
   59        9.334732   0.000000
   60        9.755551   0.000000
   61       10.034557   0.000000
   62       10.619580   0.000000
   63       10.956867   0.000000
   64       11.277430   0.000000
   65       11.565006   0.000000
   66       12.145368   0.000000
   67       12.446307   0.000000
   68       12.532419   0.000000
 
  0.2894737E+00  0.0000000E+00  0.0000000E+00  0.7142857E-02
    1       -6.404870   1.000000
    2       -6.140760   1.000000
    3       -5.993868   1.000000
    4       -5.950818   1.000000
    5        0.487616   1.000000
    6        0.597037   1.000000
    7        0.729834   1.000000
    8        0.837178   1.000000
    9        0.921264   1.000000
   10        0.992702   1.000000
   11        1.102695   1.000000
   12        1.266633   1.000000
   13        1.324878   1.000000
   14        1.405170   1.000000
   15        1.525152   1.000000
   16        1.566722   1.000000
   17        1.640684   1.000000
   18        1.738205   1.000000
   19        1.821151   1.000000
   20        1.881888   1.000000
   21        1.933298   1.000000
   22        1.965546   1.000000
   23        2.037887   1.000000
   24        2.068963   1.000000
   25        2.121451   1.000000
   26        2.151838   1.000000
   27        2.309003   1.000000
   28        2.435042   1.000000
   29        2.471743   1.000000
   30        2.520619   1.000000
   31        2.566825   1.000000
   32        2.592162   1.000000
   33        2.615491   1.000000
   34        2.691809   1.000000
   35        2.708346   1.000000
   36        2.749655   1.000000
   37        2.799148   1.000000
   38        2.860328   1.000000
   39        2.884879   1.000000
   40        2.931895   1.000000
   41        3.086622   1.000000
   42        3.107717   1.000000
   43        3.187302   1.000000
   44        3.256448   1.000000
   45        3.436802   1.000000
   46        3.618196   1.000000
   47        3.770418   1.000000
   48        4.073598   1.000000
   49        4.288246   1.000000
   50        4.432508   1.000000
   51        4.622610   1.000000
   52        5.413942   1.000000
   53        5.617814   1.000000
   54        5.847969   1.000000
   55        5.962626   1.000000
   56        6.500561   1.000000
   57        8.251955   0.000000
   58        8.968904   0.000000
   59        9.181378   0.000000
   60        9.648215   0.000000
   61       10.074504   0.000000
   62       10.505828   0.000000
   63       10.948974   0.000000
   64       11.302627   0.000000
   65       11.727887   0.000000
   66       12.199371   0.000000
   67       12.382305   0.000000
   68       12.653785   0.000000
 
  0.3157895E+00  0.0000000E+00  0.0000000E+00  0.7142857E-02
    1       -6.365225   1.000000
    2       -6.132808   1.000000
    3       -5.992418   1.000000
    4       -5.950965   1.000000
    5        0.495517   1.000000
    6        0.577962   1.000000
    7        0.737002   1.000000
    8        0.813828   1.000000
    9        0.927650   1.000000
   10        1.002591   1.000000
   11        1.146493   1.000000
   12        1.283240   1.000000
   13        1.292950   1.000000
   14        1.385043   1.000000
   15        1.539702   1.000000
   16        1.571475   1.000000
   17        1.662133   1.000000
   18        1.751041   1.000000
   19        1.834837   1.000000
   20        1.905885   1.000000
   21        1.958519   1.000000
   22        1.981253   1.000000
   23        2.052335   1.000000
   24        2.079512   1.000000
   25        2.141304   1.000000
   26        2.165039   1.000000
   27        2.308753   1.000000
   28        2.424713   1.000000
   29        2.458549   1.000000
   30        2.504759   1.000000
   31        2.545822   1.000000
   32        2.593501   1.000000
   33        2.609399   1.000000
   34        2.679836   1.000000
   35        2.695923   1.000000
   36        2.737263   1.000000
   37        2.795604   1.000000
   38        2.851016   1.000000
   39        2.875702   1.000000
   40        2.918661   1.000000
   41        3.072064   1.000000
   42        3.087775   1.000000
   43        3.144589   1.000000
   44        3.279861   1.000000
   45        3.453414   1.000000
   46        3.610914   1.000000
   47        3.708308   1.000000
   48        4.129450   1.000000
   49        4.294488   1.000000
   50        4.341103   1.000000
   51        4.636602   1.000000
   52        5.349323   1.000000
   53        5.697046   1.000000
   54        5.799928   1.000000
   55        5.906810   1.000000
   56        6.464765   1.000000
   57        8.416435   0.000000
   58        8.750181   0.000000
   59        9.037828   0.000000
   60        9.450168   0.000000
   61       10.159213   0.000000
   62       10.402137   0.000000
   63       10.957181   0.000000
   64       11.348744   0.000000
   65       11.892258   0.000000
   66       12.123782   0.000000
   67       12.322647   0.000000
   68       12.963637   0.000000
 
  0.3421053E+00  0.0000000E+00  0.0000000E+00  0.7142857E-02
    1       -6.326418   1.000000
    2       -6.124706   1.000000
    3       -5.993125   1.000000
    4       -5.951171   1.000000
    5        0.501718   1.000000
    6        0.556138   1.000000
    7        0.735260   1.000000
    8        0.791587   1.000000
    9        0.939783   1.000000
   10        1.015942   1.000000
   11        1.187053   1.000000
   12        1.257783   1.000000
   13        1.301145   1.000000
   14        1.378346   1.000000
   15        1.546949   1.000000
   16        1.573361   1.000000
   17        1.686966   1.000000
   18        1.760432   1.000000
   19        1.850395   1.000000
   20        1.931144   1.000000
   21        1.978640   1.000000
   22        1.993156   1.000000
   23        2.061182   1.000000
   24        2.108846   1.000000
   25        2.158029   1.000000
   26        2.183537   1.000000
   27        2.306208   1.000000
   28        2.410362   1.000000
   29        2.446011   1.000000
   30        2.487249   1.000000
   31        2.511917   1.000000
   32        2.590681   1.000000
   33        2.616329   1.000000
   34        2.665737   1.000000
   35        2.688127   1.000000
   36        2.723658   1.000000
   37        2.796054   1.000000
   38        2.842587   1.000000
   39        2.864473   1.000000
   40        2.905265   1.000000
   41        3.052683   1.000000
   42        3.068460   1.000000
   43        3.102722   1.000000
   44        3.287114   1.000000
   45        3.477809   1.000000
   46        3.592400   1.000000
   47        3.688189   1.000000
   48        4.180207   1.000000
   49        4.258438   1.000000
   50        4.320529   1.000000
   51        4.637197   1.000000
   52        5.303788   1.000000
   53        5.677270   1.000000
   54        5.808199   1.000000
   55        5.892077   1.000000
   56        6.429559   1.000000
   57        8.521266   0.000000
   58        8.580227   0.000000
   59        8.909931   0.000000
   60        9.251329   0.000000
   61       10.196465   0.000000
   62       10.321772   0.000000
   63       10.988033   0.000000
   64       11.415094   0.000000
   65       12.021745   0.000000
   66       12.045546   0.000000
   67       12.293551   0.000000
   68       13.315289   0.000000
 
  0.3684211E+00  0.0000000E+00  0.0000000E+00  0.7142857E-02
    1       -6.289588   1.000000
    2       -6.116421   1.000000
    3       -5.996278   1.000000
    4       -5.951417   1.000000
    5        0.502307   1.000000
    6        0.538330   1.000000
    7        0.723837   1.000000
    8        0.772513   1.000000
    9        0.956006   1.000000
   10        1.033300   1.000000
   11        1.196982   1.000000
   12        1.248530   1.000000
   13        1.321485   1.000000
   14        1.381813   1.000000
   15        1.549493   1.000000
   16        1.573127   1.000000
   17        1.710392   1.000000
   18        1.767880   1.000000
   19        1.866984   1.000000
   20        1.954236   1.000000
   21        1.984547   1.000000
   22        2.015718   1.000000
   23        2.068053   1.000000
   24        2.141209   1.000000
   25        2.176501   1.000000
   26        2.201518   1.000000
   27        2.299097   1.000000
   28        2.394806   1.000000
   29        2.434268   1.000000
   30        2.468974   1.000000
   31        2.477609   1.000000
   32        2.584279   1.000000
   33        2.623442   1.000000
   34        2.652621   1.000000
   35        2.681105   1.000000
   36        2.713620   1.000000
   37        2.798894   1.000000
   38        2.831507   1.000000
   39        2.849893   1.000000
   40        2.895473   1.000000
   41        3.026422   1.000000
   42        3.052912   1.000000
   43        3.071967   1.000000
   44        3.278494   1.000000
   45        3.502215   1.000000
   46        3.565014   1.000000
   47        3.714582   1.000000
   48        4.166254   1.000000
   49        4.262386   1.000000
   50        4.342201   1.000000
   51        4.619851   1.000000
   52        5.276019   1.000000
   53        5.591341   1.000000
   54        5.827678   1.000000
   55        5.932895   1.000000
   56        6.396390   1.000000
   57        8.342171   0.000000
   58        8.641205   0.000000
   59        8.840018   0.000000
   60        9.081151   0.000000
   61       10.171487   0.000000
   62       10.273503   0.000000
   63       11.039507   0.000000
   64       11.492052   0.000000
   65       11.951781   0.000000
   66       12.112508   0.000000
   67       12.327929   0.000000
   68       13.700735   0.000000
 
  0.3947368E+00  0.0000000E+00  0.0000000E+00  0.7142857E-02
    1       -6.256070   1.000000
    2       -6.107785   1.000000
    3       -6.002017   1.000000
    4       -5.951696   1.000000
    5        0.491665   1.000000
    6        0.532457   1.000000
    7        0.706130   1.000000
    8        0.756900   1.000000
    9        0.972988   1.000000
   10        1.053161   1.000000
   11        1.170364   1.000000
   12        1.272944   1.000000
   13        1.344174   1.000000
   14        1.393281   1.000000
   15        1.549506   1.000000
   16        1.570444   1.000000
   17        1.723654   1.000000
   18        1.780478   1.000000
   19        1.884013   1.000000
   20        1.967989   1.000000
   21        1.993690   1.000000
   22        2.037421   1.000000
   23        2.073747   1.000000
   24        2.166778   1.000000
   25        2.200142   1.000000
   26        2.214333   1.000000
   27        2.288330   1.000000
   28        2.378370   1.000000
   29        2.420972   1.000000
   30        2.436135   1.000000
   31        2.470295   1.000000
   32        2.573893   1.000000
   33        2.621405   1.000000
   34        2.643071   1.000000
   35        2.674647   1.000000
   36        2.709457   1.000000
   37        2.798746   1.000000
   38        2.818654   1.000000
   39        2.832216   1.000000
   40        2.893764   1.000000
   41        2.998379   1.000000
   42        3.033513   1.000000
   43        3.063419   1.000000
   44        3.260344   1.000000
   45        3.490805   1.000000
   46        3.579310   1.000000
   47        3.763111   1.000000
   48        4.118103   1.000000
   49        4.299251   1.000000
   50        4.375517   1.000000
   51        4.583615   1.000000
   52        5.261003   1.000000
   53        5.513502   1.000000
   54        5.815778   1.000000
   55        6.002057   1.000000
   56        6.366828   1.000000
   57        8.177901   0.000000
   58        8.561271   0.000000
   59        8.866796   0.000000
   60        8.991037   0.000000
   61       10.119563   0.000000
   62       10.235078   0.000000
   63       11.098965   0.000000
   64       11.567823   0.000000
   65       11.881328   0.000000
   66       12.135101   0.000000
   67       12.417543   0.000000
   68       14.047903   0.000000
 
  0.4210526E+00  0.0000000E+00  0.0000000E+00  0.7142857E-02
    1       -6.227438   1.000000
    2       -6.098471   1.000000
    3       -6.010249   1.000000
    4       -5.951988   1.000000
    5        0.476109   1.000000
    6        0.533869   1.000000
    7        0.687569   1.000000
    8        0.743714   1.000000
    9        0.987854   1.000000
   10        1.072767   1.000000
   11        1.144156   1.000000
   12        1.296862   1.000000
   13        1.367534   1.000000
   14        1.409803   1.000000
   15        1.547300   1.000000
   16        1.565634   1.000000
   17        1.722196   1.000000
   18        1.802798   1.000000
   19        1.901274   1.000000
   20        1.971682   1.000000
   21        2.004661   1.000000
   22        2.056718   1.000000
   23        2.079020   1.000000
   24        2.183532   1.000000
   25        2.217404   1.000000
   26        2.223434   1.000000
   27        2.280573   1.000000
   28        2.361283   1.000000
   29        2.401428   1.000000
   30        2.417019   1.000000
   31        2.473717   1.000000
   32        2.562437   1.000000
   33        2.605928   1.000000
   34        2.639514   1.000000
   35        2.670939   1.000000
   36        2.708201   1.000000
   37        2.784850   1.000000
   38        2.806246   1.000000
   39        2.822848   1.000000
   40        2.897339   1.000000
   41        2.980780   1.000000
   42        3.012250   1.000000
   43        3.068013   1.000000
   44        3.238873   1.000000
   45        3.462364   1.000000
   46        3.613502   1.000000
   47        3.826119   1.000000
   48        4.078681   1.000000
   49        4.324023   1.000000
   50        4.413390   1.000000
   51        4.531586   1.000000
   52        5.255148   1.000000
   53        5.453593   1.000000
   54        5.799936   1.000000
   55        6.063926   1.000000
   56        6.342624   1.000000
   57        8.047117   0.000000
   58        8.438771   0.000000
   59        8.808006   0.000000
   60        9.058359   0.000000
   61       10.068074   0.000000
   62       10.194694   0.000000
   63       11.153837   0.000000
   64       11.631499   0.000000
   65       11.824135   0.000000
   66       12.148504   0.000000
   67       12.510596   0.000000
   68       14.016043   0.000000
 
  0.4473684E+00  0.0000000E+00  0.0000000E+00  0.7142857E-02
    1       -6.205461   1.000000
    2       -6.088249   1.000000
    3       -6.020432   1.000000
    4       -5.952255   1.000000
    5        0.462922   1.000000
    6        0.536386   1.000000
    7        0.672139   1.000000
    8        0.733071   1.000000
    9        0.999144   1.000000
   10        1.088234   1.000000
   11        1.125220   1.000000
   12        1.316550   1.000000
   13        1.389343   1.000000
   14        1.426527   1.000000
   15        1.541147   1.000000
   16        1.561165   1.000000
   17        1.713807   1.000000
   18        1.828313   1.000000
   19        1.918156   1.000000
   20        1.971166   1.000000
   21        2.005762   1.000000
   22        2.075731   1.000000
   23        2.086394   1.000000
   24        2.188005   1.000000
   25        2.213581   1.000000
   26        2.233679   1.000000
   27        2.284586   1.000000
   28        2.346538   1.000000
   29        2.384796   1.000000
   30        2.412273   1.000000
   31        2.478965   1.000000
   32        2.553850   1.000000
   33        2.586357   1.000000
   34        2.637887   1.000000
   35        2.669367   1.000000
   36        2.706876   1.000000
   37        2.764959   1.000000
   38        2.790147   1.000000
   39        2.824888   1.000000
   40        2.900008   1.000000
   41        2.974904   1.000000
   42        2.997895   1.000000
   43        3.075350   1.000000
   44        3.218882   1.000000
   45        3.437575   1.000000
   46        3.642051   1.000000
   47        3.898150   1.000000
   48        4.050429   1.000000
   49        4.338332   1.000000
   50        4.432430   1.000000
   51        4.481865   1.000000
   52        5.259125   1.000000
   53        5.409682   1.000000
   54        5.786333   1.000000
   55        6.109702   1.000000
   56        6.325568   1.000000
   57        7.954365   0.000000
   58        8.329177   0.000000
   59        8.748092   0.000000
   60        9.146238   0.000000
   61       10.023209   0.000000
   62       10.159405   0.000000
   63       11.196424   0.000000
   64       11.676825   0.000000
   65       11.781812   0.000000
   66       12.165362   0.000000
   67       12.584896   0.000000
   68       13.978768   0.000000
 
  0.4736842E+00  0.0000000E+00  0.0000000E+00  0.7142857E-02
    1       -6.191714   1.000000
    2       -6.078063   1.000000
    3       -6.030824   1.000000
    4       -5.952444   1.000000
    5        0.454485   1.000000
    6        0.538238   1.000000
    7        0.662118   1.000000
    8        0.725997   1.000000
    9        1.006266   1.000000
   10        1.094986   1.000000
   11        1.116778   1.000000
   12        1.330552   1.000000
   13        1.406398   1.000000
   14        1.438648   1.000000
   15        1.532014   1.000000
   16        1.559050   1.000000
   17        1.705983   1.000000
   18        1.849563   1.000000
   19        1.932964   1.000000
   20        1.966898   1.000000
   21        1.999729   1.000000
   22        2.087843   1.000000
   23        2.098841   1.000000
   24        2.182639   1.000000
   25        2.206914   1.000000
   26        2.232066   1.000000
   27        2.297310   1.000000
   28        2.337185   1.000000
   29        2.375923   1.000000
   30        2.413573   1.000000
   31        2.484185   1.000000
   32        2.542684   1.000000
   33        2.576914   1.000000
   34        2.635979   1.000000
   35        2.669114   1.000000
   36        2.705178   1.000000
   37        2.748839   1.000000
   38        2.778746   1.000000
   39        2.827338   1.000000
   40        2.900843   1.000000
   41        2.970100   1.000000
   42        2.996410   1.000000
   43        3.080985   1.000000
   44        3.204583   1.000000
   45        3.420887   1.000000
   46        3.659779   1.000000
   47        3.965714   1.000000
   48        4.031985   1.000000
   49        4.341142   1.000000
   50        4.397432   1.000000
   51        4.481818   1.000000
   52        5.272101   1.000000
   53        5.377212   1.000000
   54        5.777447   1.000000
   55        6.136490   1.000000
   56        6.316424   1.000000
   57        7.900353   0.000000
   58        8.254175   0.000000
   59        8.712267   0.000000
   60        9.208870   0.000000
   61        9.990254   0.000000
   62       10.136309   0.000000
   63       11.222956   0.000000
   64       11.703415   0.000000
   65       11.755212   0.000000
   66       12.180606   0.000000
   67       12.632285   0.000000
   68       13.950729   0.000000
 
  0.5000000E+00  0.0000000E+00  0.0000000E+00  0.7142857E-02
    1       -6.187065   1.000000
    2       -6.072794   1.000000
    3       -6.036174   1.000000
    4       -5.952513   1.000000
    5        0.451602   1.000000
    6        0.538896   1.000000
    7        0.658660   1.000000
    8        0.723504   1.000000
    9        1.008733   1.000000
   10        1.095114   1.000000
   11        1.116090   1.000000
   12        1.335798   1.000000
   13        1.413289   1.000000
   14        1.443071   1.000000
   15        1.527260   1.000000
   16        1.558520   1.000000
   17        1.702923   1.000000
   18        1.858322   1.000000
   19        1.940615   1.000000
   20        1.962431   1.000000
   21        1.996313   1.000000
   22        2.091009   1.000000
   23        2.106556   1.000000
   24        2.178331   1.000000
   25        2.204275   1.000000
   26        2.229219   1.000000
   27        2.303985   1.000000
   28        2.334178   1.000000
   29        2.372944   1.000000
   30        2.414496   1.000000
   31        2.488522   1.000000
   32        2.533700   1.000000
   33        2.576766   1.000000
   34        2.634839   1.000000
   35        2.669348   1.000000
   36        2.704304   1.000000
   37        2.742568   1.000000
   38        2.774696   1.000000
   39        2.828253   1.000000
   40        2.901070   1.000000
   41        2.967137   1.000000
   42        2.998507   1.000000
   43        3.082936   1.000000
   44        3.199376   1.000000
   45        3.414952   1.000000
   46        3.665723   1.000000
   47        4.000719   1.000000
   48        4.021028   1.000000
   49        4.334358   1.000000
   50        4.380662   1.000000
   51        4.486887   1.000000
   52        5.281419   1.000000
   53        5.362365   1.000000
   54        5.774388   1.000000
   55        6.145014   1.000000
   56        6.313810   1.000000
   57        7.882875   0.000000
   58        8.227435   0.000000
   59        8.700478   0.000000
   60        9.231649   0.000000
   61        9.977695   0.000000
   62       10.128426   0.000000
   63       11.231923   0.000000
   64       11.712632   0.000000
   65       11.745574   0.000000
   66       12.186735   0.000000
   67       12.648568   0.000000
   68       13.942879   0.000000
 
  0.0000000E+00  0.5000000E+00  0.0000000E+00  0.7142857E-02
    1       -6.442433   1.000000
    2       -6.326683   1.000000
    3       -6.094736   1.000000
    4       -6.014981   1.000000
    5        0.407683   1.000000
    6        0.424015   1.000000
    7        0.722432   1.000000
    8        0.745591   1.000000
    9        0.931107   1.000000
   10        0.981889   1.000000
   11        1.016660   1.000000
   12        1.095883   1.000000
   13        1.205567   1.000000
   14        1.281657   1.000000
   15        1.390003   1.000000
   16        1.407768   1.000000
   17        1.605829   1.000000
   18        1.648362   1.000000
   19        1.662016   1.000000
   20        1.769916   1.000000
   21        1.913900   1.000000
   22        1.989152   1.000000
   23        2.091369   1.000000
   24        2.122409   1.000000
   25        2.259824   1.000000
   26        2.339438   1.000000
   27        2.405777   1.000000
   28        2.436441   1.000000
   29        2.450090   1.000000
   30        2.541652   1.000000
   31        2.559667   1.000000
   32        2.605562   1.000000
   33        2.635158   1.000000
   34        2.711862   1.000000
   35        2.773654   1.000000
   36        2.818406   1.000000
   37        2.884984   1.000000
   38        2.926922   1.000000
   39        2.955204   1.000000
   40        3.022086   1.000000
   41        3.068723   1.000000
   42        3.188009   1.000000
   43        3.213666   1.000000
   44        3.223712   1.000000
   45        3.282981   1.000000
   46        3.324978   1.000000
   47        4.073717   1.000000
   48        4.195323   1.000000
   49        5.316977   1.000000
   50        5.381582   1.000000
   51        5.646804   1.000000
   52        5.734449   1.000000
   53        5.855934   1.000000
   54        6.145375   1.000000
   55        6.503997   1.000000
   56        6.601546   1.000000
   57        7.779367   0.000000
   58        7.948274   0.000000
   59        8.229613   0.000000
   60        8.252918   0.000000
   61       11.180584   0.000000
   62       11.261806   0.000000
   63       11.331478   0.000000
   64       11.574317   0.000000
   65       11.949970   0.000000
   66       12.177964   0.000000
   67       12.596082   0.000000
   68       12.790139   0.000000
 
  0.0000000E+00  0.4736842E+00  0.0000000E+00  0.7142857E-02
    1       -6.447235   1.000000
    2       -6.321902   1.000000
    3       -6.095329   1.000000
    4       -6.014247   1.000000
    5        0.408625   1.000000
    6        0.424941   1.000000
    7        0.702388   1.000000
    8        0.766749   1.000000
    9        0.926548   1.000000
   10        0.979491   1.000000
   11        1.018555   1.000000
   12        1.096887   1.000000
   13        1.207919   1.000000
   14        1.283827   1.000000
   15        1.388868   1.000000
   16        1.408514   1.000000
   17        1.604144   1.000000
   18        1.645883   1.000000
   19        1.666396   1.000000
   20        1.772106   1.000000
   21        1.914990   1.000000
   22        1.989083   1.000000
   23        2.089180   1.000000
   24        2.123857   1.000000
   25        2.257929   1.000000
   26        2.338029   1.000000
   27        2.406848   1.000000
   28        2.430190   1.000000
   29        2.455810   1.000000
   30        2.540003   1.000000
   31        2.560909   1.000000
   32        2.598761   1.000000
   33        2.641341   1.000000
   34        2.712868   1.000000
   35        2.773383   1.000000
   36        2.816347   1.000000
   37        2.874638   1.000000
   38        2.933657   1.000000
   39        2.957982   1.000000
   40        3.022009   1.000000
   41        3.070644   1.000000
   42        3.185479   1.000000
   43        3.206388   1.000000
   44        3.232711   1.000000
   45        3.283302   1.000000
   46        3.328560   1.000000
   47        4.045919   1.000000
   48        4.223441   1.000000
   49        5.289724   1.000000
   50        5.395718   1.000000
   51        5.644546   1.000000
   52        5.727663   1.000000
   53        5.862908   1.000000
   54        6.147876   1.000000
   55        6.505798   1.000000
   56        6.601699   1.000000
   57        7.766802   0.000000
   58        7.960683   0.000000
   59        8.195327   0.000000
   60        8.291831   0.000000
   61       11.180588   0.000000
   62       11.258645   0.000000
   63       11.340258   0.000000
   64       11.580099   0.000000
   65       11.949999   0.000000
   66       12.177005   0.000000
   67       12.598838   0.000000
   68       12.783598   0.000000
 
  0.0000000E+00  0.4473684E+00  0.0000000E+00  0.7142857E-02
    1       -6.459701   1.000000
    2       -6.309523   1.000000
    3       -6.096992   1.000000
    4       -6.012141   1.000000
    5        0.411438   1.000000
    6        0.427686   1.000000
    7        0.675535   1.000000
    8        0.796829   1.000000
    9        0.914850   1.000000
   10        0.971325   1.000000
   11        1.024432   1.000000
   12        1.099217   1.000000
   13        1.214718   1.000000
   14        1.289799   1.000000
   15        1.386242   1.000000
   16        1.410262   1.000000
   17        1.599433   1.000000
   18        1.641606   1.000000
   19        1.676409   1.000000
   20        1.778431   1.000000
   21        1.918144   1.000000
   22        1.988743   1.000000
   23        2.083933   1.000000
   24        2.126354   1.000000
   25        2.253248   1.000000
   26        2.334085   1.000000
   27        2.409412   1.000000
   28        2.420414   1.000000
   29        2.463895   1.000000
   30        2.535322   1.000000
   31        2.561089   1.000000
   32        2.590186   1.000000
   33        2.651309   1.000000
   34        2.714724   1.000000
   35        2.773325   1.000000
   36        2.810406   1.000000
   37        2.855729   1.000000
   38        2.942062   1.000000
   39        2.966502   1.000000
   40        3.022084   1.000000
   41        3.075985   1.000000
   42        3.176429   1.000000
   43        3.200545   1.000000
   44        3.245096   1.000000
   45        3.285203   1.000000
   46        3.338396   1.000000
   47        3.992646   1.000000
   48        4.277572   1.000000
   49        5.237487   1.000000
   50        5.408137   1.000000
   51        5.634579   1.000000
   52        5.716138   1.000000
   53        5.879314   1.000000
   54        6.155102   1.000000
   55        6.511039   1.000000
   56        6.602208   1.000000
   57        7.737452   0.000000
   58        7.987856   0.000000
   59        8.157190   0.000000
   60        8.345751   0.000000
   61       11.179296   0.000000
   62       11.254070   0.000000
   63       11.360933   0.000000
   64       11.598453   0.000000
   65       11.950292   0.000000
   66       12.174274   0.000000
   67       12.606700   0.000000
   68       12.780579   0.000000
 
  0.0000000E+00  0.4210526E+00  0.0000000E+00  0.7142857E-02
    1       -6.476474   1.000000
    2       -6.292973   1.000000
    3       -6.099424   1.000000
    4       -6.008901   1.000000
    5        0.416066   1.000000
    6        0.432152   1.000000
    7        0.649981   1.000000
    8        0.827208   1.000000
    9        0.899481   1.000000
   10        0.958062   1.000000
   11        1.032951   1.000000
   12        1.101821   1.000000
   13        1.225068   1.000000
   14        1.298045   1.000000
   15        1.383666   1.000000
   16        1.412474   1.000000
   17        1.592442   1.000000
   18        1.637630   1.000000
   19        1.690168   1.000000
   20        1.788286   1.000000
   21        1.923064   1.000000
   22        1.987776   1.000000
   23        2.077539   1.000000
   24        2.126578   1.000000
   25        2.248242   1.000000
   26        2.328439   1.000000
   27        2.407393   1.000000
   28        2.416036   1.000000
   29        2.469599   1.000000
   30        2.526947   1.000000
   31        2.554402   1.000000
   32        2.592161   1.000000
   33        2.659240   1.000000
   34        2.714188   1.000000
   35        2.775433   1.000000
   36        2.800963   1.000000
   37        2.839298   1.000000
   38        2.946004   1.000000
   39        2.977839   1.000000
   40        3.022934   1.000000
   41        3.083700   1.000000
   42        3.162656   1.000000
   43        3.198323   1.000000
   44        3.256814   1.000000
   45        3.290208   1.000000
   46        3.352902   1.000000
   47        3.934267   1.000000
   48        4.337006   1.000000
   49        5.177571   1.000000
   50        5.402093   1.000000
   51        5.610189   1.000000
   52        5.714073   1.000000
   53        5.899086   1.000000
   54        6.166305   1.000000
   55        6.519284   1.000000
   56        6.603253   1.000000
   57        7.700939   0.000000
   58        8.015527   0.000000
   59        8.127777   0.000000
   60        8.407242   0.000000
   61       11.173015   0.000000
   62       11.254639   0.000000
   63       11.385504   0.000000
   64       11.631101   0.000000
   65       11.951837   0.000000
   66       12.170076   0.000000
   67       12.618074   0.000000
   68       12.777188   0.000000
 
  0.0000000E+00  0.3947368E+00  0.0000000E+00  0.7142857E-02
    1       -6.495227   1.000000
    2       -6.274721   1.000000
    3       -6.102207   1.000000
    4       -6.004821   1.000000
    5        0.422406   1.000000
    6        0.438191   1.000000
    7        0.626594   1.000000
    8        0.853772   1.000000
    9        0.885469   1.000000
   10        0.941935   1.000000
   11        1.042181   1.000000
   12        1.104367   1.000000
   13        1.237401   1.000000
   14        1.306187   1.000000
   15        1.382914   1.000000
   16        1.415315   1.000000
   17        1.583969   1.000000
   18        1.634643   1.000000
   19        1.707263   1.000000
   20        1.800927   1.000000
   21        1.929334   1.000000
   22        1.985693   1.000000
   23        2.071153   1.000000
   24        2.121887   1.000000
   25        2.245357   1.000000
   26        2.322240   1.000000
   27        2.398263   1.000000
   28        2.419102   1.000000
   29        2.471284   1.000000
   30        2.513714   1.000000
   31        2.546540   1.000000
   32        2.601197   1.000000
   33        2.664003   1.000000
   34        2.708601   1.000000
   35        2.777796   1.000000
   36        2.792828   1.000000
   37        2.829720   1.000000
   38        2.946781   1.000000
   39        2.988134   1.000000
   40        3.024974   1.000000
   41        3.092491   1.000000
   42        3.147605   1.000000
   43        3.197072   1.000000
   44        3.267611   1.000000
   45        3.298708   1.000000
   46        3.370908   1.000000
   47        3.875363   1.000000
   48        4.396531   1.000000
   49        5.114834   1.000000
   50        5.376822   1.000000
   51        5.572440   1.000000
   52        5.722152   1.000000
   53        5.919550   1.000000
   54        6.180460   1.000000
   55        6.529881   1.000000
   56        6.605181   1.000000
   57        7.659193   0.000000
   58        8.036162   0.000000
   59        8.112574   0.000000
   60        8.476974   0.000000
   61       11.157987   0.000000
   62       11.262667   0.000000
   63       11.409927   0.000000
   64       11.676629   0.000000
   65       11.957820   0.000000
   66       12.164821   0.000000
   67       12.630250   0.000000
   68       12.777527   0.000000
 
  0.0000000E+00  0.3684211E+00  0.0000000E+00  0.7142857E-02
    1       -6.514667   1.000000
    2       -6.256278   1.000000
    3       -6.104858   1.000000
    4       -6.000188   1.000000
    5        0.430241   1.000000
    6        0.445634   1.000000
    7        0.605836   1.000000
    8        0.853915   1.000000
    9        0.895283   1.000000
   10        0.925326   1.000000
   11        1.050937   1.000000
   12        1.107104   1.000000
   13        1.249788   1.000000
   14        1.311420   1.000000
   15        1.385909   1.000000
   16        1.419570   1.000000
   17        1.574799   1.000000
   18        1.633104   1.000000
   19        1.727253   1.000000
   20        1.815544   1.000000
   21        1.936469   1.000000
   22        1.982128   1.000000
   23        2.065531   1.000000
   24        2.111419   1.000000
   25        2.245137   1.000000
   26        2.316653   1.000000
   27        2.389384   1.000000
   28        2.421410   1.000000
   29        2.468453   1.000000
   30        2.497598   1.000000
   31        2.540580   1.000000
   32        2.611324   1.000000
   33        2.665631   1.000000
   34        2.699418   1.000000
   35        2.770281   1.000000
   36        2.798774   1.000000
   37        2.826465   1.000000
   38        2.945415   1.000000
   39        2.996098   1.000000
   40        3.028188   1.000000
   41        3.100882   1.000000
   42        3.133380   1.000000
   43        3.195782   1.000000
   44        3.278254   1.000000
   45        3.309665   1.000000
   46        3.391553   1.000000
   47        3.817441   1.000000
   48        4.453531   1.000000
   49        5.052015   1.000000
   50        5.336265   1.000000
   51        5.526896   1.000000
   52        5.733254   1.000000
   53        5.939961   1.000000
   54        6.196460   1.000000
   55        6.542061   1.000000
   56        6.608515   1.000000
   57        7.610251   0.000000
   58        8.050185   0.000000
   59        8.113888   0.000000
   60        8.554519   0.000000
   61       11.132659   0.000000
   62       11.276200   0.000000
   63       11.433948   0.000000
   64       11.725699   0.000000
   65       11.976633   0.000000
   66       12.158943   0.000000
   67       12.638695   0.000000
   68       12.786152   0.000000
 
  0.0000000E+00  0.3421053E+00  0.0000000E+00  0.7142857E-02
    1       -6.534063   1.000000
    2       -6.238708   1.000000
    3       -6.106833   1.000000
    4       -5.995244   1.000000
    5        0.439171   1.000000
    6        0.454315   1.000000
    7        0.588111   1.000000
    8        0.836567   1.000000
    9        0.902626   1.000000
   10        0.926961   1.000000
   11        1.058620   1.000000
   12        1.110312   1.000000
   13        1.260360   1.000000
   14        1.311981   1.000000
   15        1.393595   1.000000
   16        1.426278   1.000000
   17        1.565711   1.000000
   18        1.633283   1.000000
   19        1.749307   1.000000
   20        1.831213   1.000000
   21        1.943711   1.000000
   22        1.977499   1.000000
   23        2.061261   1.000000
   24        2.096351   1.000000
   25        2.245513   1.000000
   26        2.312765   1.000000
   27        2.381772   1.000000
   28        2.420811   1.000000
   29        2.461892   1.000000
   30        2.482360   1.000000
   31        2.534193   1.000000
   32        2.618711   1.000000
   33        2.665290   1.000000
   34        2.690772   1.000000
   35        2.762568   1.000000
   36        2.808433   1.000000
   37        2.828961   1.000000
   38        2.942724   1.000000
   39        3.001770   1.000000
   40        3.032121   1.000000
   41        3.105353   1.000000
   42        3.123951   1.000000
   43        3.194160   1.000000
   44        3.289586   1.000000
   45        3.321797   1.000000
   46        3.413916   1.000000
   47        3.761335   1.000000
   48        4.505284   1.000000
   49        4.991317   1.000000
   50        5.285513   1.000000
   51        5.476952   1.000000
   52        5.742638   1.000000
   53        5.960138   1.000000
   54        6.213254   1.000000
   55        6.555047   1.000000
   56        6.613865   1.000000
   57        7.552214   0.000000
   58        8.061883   0.000000
   59        8.130821   0.000000
   60        8.638332   0.000000
   61       11.096461   0.000000
   62       11.291964   0.000000
   63       11.458889   0.000000
   64       11.760929   0.000000
   65       12.022541   0.000000
   66       12.153315   0.000000
   67       12.636780   0.000000
   68       12.807773   0.000000
 
  0.0000000E+00  0.3157895E+00  0.0000000E+00  0.7142857E-02
    1       -6.552965   1.000000
    2       -6.222920   1.000000
    3       -6.107512   1.000000
    4       -5.990177   1.000000
    5        0.448526   1.000000
    6        0.464118   1.000000
    7        0.573875   1.000000
    8        0.817695   1.000000
    9        0.886600   1.000000
   10        0.952662   1.000000
   11        1.065028   1.000000
   12        1.113950   1.000000
   13        1.267740   1.000000
   14        1.308331   1.000000
   15        1.405108   1.000000
   16        1.436062   1.000000
   17        1.557494   1.000000
   18        1.635234   1.000000
   19        1.771926   1.000000
   20        1.846778   1.000000
   21        1.948840   1.000000
   22        1.974748   1.000000
   23        2.058721   1.000000
   24        2.078871   1.000000
   25        2.243251   1.000000
   26        2.311283   1.000000
   27        2.375653   1.000000
   28        2.415993   1.000000
   29        2.452279   1.000000
   30        2.471822   1.000000
   31        2.525053   1.000000
   32        2.620590   1.000000
   33        2.665430   1.000000
   34        2.685675   1.000000
   35        2.758940   1.000000
   36        2.814707   1.000000
   37        2.837580   1.000000
   38        2.939543   1.000000
   39        3.005604   1.000000
   40        3.036078   1.000000
   41        3.099724   1.000000
   42        3.126278   1.000000
   43        3.192151   1.000000
   44        3.301760   1.000000
   45        3.334604   1.000000
   46        3.436813   1.000000
   47        3.707784   1.000000
   48        4.547881   1.000000
   49        4.934923   1.000000
   50        5.230103   1.000000
   51        5.424418   1.000000
   52        5.748503   1.000000
   53        5.979957   1.000000
   54        6.229943   1.000000
   55        6.568187   1.000000
   56        6.621702   1.000000
   57        7.485073   0.000000
   58        8.068685   0.000000
   59        8.167486   0.000000
   60        8.726411   0.000000
   61       11.048902   0.000000
   62       11.307418   0.000000
   63       11.485052   0.000000
   64       11.772241   0.000000
   65       12.096858   0.000000
   66       12.154472   0.000000
   67       12.626622   0.000000
   68       12.843541   0.000000
 
  0.0000000E+00  0.2894737E+00  0.0000000E+00  0.7142857E-02
    1       -6.571071   1.000000
    2       -6.209757   1.000000
    3       -6.106237   1.000000
    4       -5.985141   1.000000
    5        0.457338   1.000000
    6        0.474944   1.000000
    7        0.563666   1.000000
    8        0.799274   1.000000
    9        0.870049   1.000000
   10        0.978309   1.000000
   11        1.070249   1.000000
   12        1.117563   1.000000
   13        1.271364   1.000000
   14        1.302099   1.000000
   15        1.418961   1.000000
   16        1.448522   1.000000
   17        1.550941   1.000000
   18        1.638791   1.000000
   19        1.792425   1.000000
   20        1.860961   1.000000
   21        1.948141   1.000000
   22        1.979722   1.000000
   23        2.056194   1.000000
   24        2.063158   1.000000
   25        2.236266   1.000000
   26        2.311442   1.000000
   27        2.370870   1.000000
   28        2.408003   1.000000
   29        2.439634   1.000000
   30        2.467937   1.000000
   31        2.512721   1.000000
   32        2.617964   1.000000
   33        2.665504   1.000000
   34        2.685111   1.000000
   35        2.759326   1.000000
   36        2.818659   1.000000
   37        2.848781   1.000000
   38        2.936722   1.000000
   39        3.007978   1.000000
   40        3.039462   1.000000
   41        3.091356   1.000000
   42        3.134014   1.000000
   43        3.189844   1.000000
   44        3.314159   1.000000
   45        3.348516   1.000000
   46        3.458706   1.000000
   47        3.657739   1.000000
   48        4.575384   1.000000
   49        4.885176   1.000000
   50        5.176648   1.000000
   51        5.370484   1.000000
   52        5.750737   1.000000
   53        5.999324   1.000000
   54        6.245849   1.000000
   55        6.581115   1.000000
   56        6.632086   1.000000
   57        7.410385   0.000000
   58        8.068386   0.000000
   59        8.225704   0.000000
   60        8.816779   0.000000
   61       10.989731   0.000000
   62       11.321065   0.000000
   63       11.510451   0.000000
   64       11.766638   0.000000
   65       12.126191   0.000000
   66       12.227534   0.000000
   67       12.610837   0.000000
   68       12.895028   0.000000
 
  0.0000000E+00  0.2631579E+00  0.0000000E+00  0.7142857E-02
    1       -6.588150   1.000000
    2       -6.199874   1.000000
    3       -6.102500   1.000000
    4       -5.980252   1.000000
    5        0.464576   1.000000
    6        0.486536   1.000000
    7        0.558041   1.000000
    8        0.782051   1.000000
    9        0.854545   1.000000
   10        1.002204   1.000000
   11        1.074523   1.000000
   12        1.120466   1.000000
   13        1.271383   1.000000
   14        1.294951   1.000000
   15        1.433842   1.000000
   16        1.462537   1.000000
   17        1.546880   1.000000
   18        1.643588   1.000000
   19        1.806239   1.000000
   20        1.873266   1.000000
   21        1.945056   1.000000
   22        1.991981   1.000000
   23        2.041771   1.000000
   24        2.063579   1.000000
   25        2.224624   1.000000
   26        2.310670   1.000000
   27        2.367257   1.000000
   28        2.399707   1.000000
   29        2.425712   1.000000
   30        2.468131   1.000000
   31        2.499211   1.000000
   32        2.613820   1.000000
   33        2.662894   1.000000
   34        2.688127   1.000000
   35        2.763156   1.000000
   36        2.822280   1.000000
   37        2.859000   1.000000
   38        2.935083   1.000000
   39        3.008977   1.000000
   40        3.042038   1.000000
   41        3.085128   1.000000
   42        3.143067   1.000000
   43        3.187577   1.000000
   44        3.325649   1.000000
   45        3.364511   1.000000
   46        3.477433   1.000000
   47        3.612920   1.000000
   48        4.580400   1.000000
   49        4.843648   1.000000
   50        5.133364   1.000000
   51        5.316177   1.000000
   52        5.749993   1.000000
   53        6.018270   1.000000
   54        6.260572   1.000000
   55        6.593760   1.000000
   56        6.644539   1.000000
   57        7.330278   0.000000
   58        8.062966   0.000000
   59        8.302089   0.000000
   60        8.907667   0.000000
   61       10.919129   0.000000
   62       11.331973   0.000000
   63       11.530753   0.000000
   64       11.755293   0.000000
   65       12.121238   0.000000
   66       12.350009   0.000000
   67       12.595380   0.000000
   68       12.954877   0.000000
 
  0.0000000E+00  0.2368421E+00  0.0000000E+00  0.7142857E-02
    1       -6.604028   1.000000
    2       -6.193427   1.000000
    3       -6.096270   1.000000
    4       -5.975601   1.000000
    5        0.469585   1.000000
    6        0.498347   1.000000
    7        0.557234   1.000000
    8        0.766630   1.000000
    9        0.840520   1.000000
   10        1.023911   1.000000
   11        1.078074   1.000000
   12        1.122080   1.000000
   13        1.268070   1.000000
   14        1.288522   1.000000
   15        1.448156   1.000000
   16        1.477246   1.000000
   17        1.546136   1.000000
   18        1.649082   1.000000
   19        1.808263   1.000000
   20        1.884477   1.000000
   21        1.945023   1.000000
   22        2.007212   1.000000
   23        2.027287   1.000000
   24        2.071605   1.000000
   25        2.209605   1.000000
   26        2.306595   1.000000
   27        2.364696   1.000000
   28        2.392289   1.000000
   29        2.412362   1.000000
   30        2.468464   1.000000
   31        2.488979   1.000000
   32        2.609443   1.000000
   33        2.657709   1.000000
   34        2.691819   1.000000
   35        2.769818   1.000000
   36        2.826038   1.000000
   37        2.866760   1.000000
   38        2.935286   1.000000
   39        3.008560   1.000000
   40        3.043991   1.000000
   41        3.081726   1.000000
   42        3.152287   1.000000
   43        3.186429   1.000000
   44        3.335310   1.000000
   45        3.382988   1.000000
   46        3.489128   1.000000
   47        3.577367   1.000000
   48        4.558387   1.000000
   49        4.808681   1.000000
   50        5.108130   1.000000
   51        5.262697   1.000000
   52        5.747150   1.000000
   53        6.036993   1.000000
   54        6.274017   1.000000
   55        6.606115   1.000000
   56        6.658256   1.000000
   57        7.246854   0.000000
   58        8.054530   0.000000
   59        8.392824   0.000000
   60        8.997499   0.000000
   61       10.837781   0.000000
   62       11.339054   0.000000
   63       11.540447   0.000000
   64       11.747565   0.000000
   65       12.113641   0.000000
   66       12.472867   0.000000
   67       12.585980   0.000000
   68       13.024256   0.000000
 
  0.0000000E+00  0.2105263E+00  0.0000000E+00  0.7142857E-02
    1       -6.618561   1.000000
    2       -6.189940   1.000000
    3       -6.088126   1.000000
    4       -5.971262   1.000000
    5        0.472459   1.000000
    6        0.509735   1.000000
    7        0.560591   1.000000
    8        0.753648   1.000000
    9        0.828234   1.000000
   10        1.043060   1.000000
   11        1.080997   1.000000
   12        1.122284   1.000000
   13        1.261757   1.000000
   14        1.284072   1.000000
   15        1.460013   1.000000
   16        1.492530   1.000000
   17        1.549311   1.000000
   18        1.654627   1.000000
   19        1.798108   1.000000
   20        1.893679   1.000000
   21        1.948438   1.000000
   22        2.014356   1.000000
   23        2.025298   1.000000
   24        2.086281   1.000000
   25        2.193003   1.000000
   26        2.299211   1.000000
   27        2.361619   1.000000
   28        2.384607   1.000000
   29        2.401727   1.000000
   30        2.464634   1.000000
   31        2.487584   1.000000
   32        2.604855   1.000000
   33        2.650517   1.000000
   34        2.694520   1.000000
   35        2.778490   1.000000
   36        2.829898   1.000000
   37        2.871862   1.000000
   38        2.937581   1.000000
   39        3.006903   1.000000
   40        3.045657   1.000000
   41        3.080660   1.000000
   42        3.158939   1.000000
   43        3.189457   1.000000
   44        3.342959   1.000000
   45        3.401778   1.000000
   46        3.488426   1.000000
   47        3.558778   1.000000
   48        4.511751   1.000000
   49        4.776647   1.000000
   50        5.102317   1.000000
   51        5.212363   1.000000
   52        5.743061   1.000000
   53        6.055811   1.000000
   54        6.286388   1.000000
   55        6.617964   1.000000
   56        6.672394   1.000000
   57        7.162062   0.000000
   58        8.044533   0.000000
   59        8.494687   0.000000
   60        9.084803   0.000000
   61       10.746844   0.000000
   62       11.340466   0.000000
   63       11.536896   0.000000
   64       11.749110   0.000000
   65       12.105654   0.000000
   66       12.519337   0.000000
   67       12.657631   0.000000
   68       13.124350   0.000000
 
  0.0000000E+00  0.1842105E+00  0.0000000E+00  0.7142857E-02
    1       -6.631639   1.000000
    2       -6.188586   1.000000
    3       -6.078996   1.000000
    4       -5.967297   1.000000
    5        0.473923   1.000000
    6        0.520210   1.000000
    7        0.566402   1.000000
    8        0.743808   1.000000
    9        0.817823   1.000000
   10        1.059043   1.000000
   11        1.083209   1.000000
   12        1.121770   1.000000
   13        1.253483   1.000000
   14        1.281606   1.000000
   15        1.468462   1.000000
   16        1.508003   1.000000
   17        1.556579   1.000000
   18        1.659573   1.000000
   19        1.780145   1.000000
   20        1.897992   1.000000
   21        1.951287   1.000000
   22        2.013692   1.000000
   23        2.037702   1.000000
   24        2.106183   1.000000
   25        2.177775   1.000000
   26        2.290218   1.000000
   27        2.354735   1.000000
   28        2.376398   1.000000
   29        2.395347   1.000000
   30        2.459801   1.000000
   31        2.492306   1.000000
   32        2.599736   1.000000
   33        2.641711   1.000000
   34        2.695958   1.000000
   35        2.788011   1.000000
   36        2.833756   1.000000
   37        2.875023   1.000000
   38        2.941705   1.000000
   39        3.004470   1.000000
   40        3.047136   1.000000
   41        3.081126   1.000000
   42        3.159852   1.000000
   43        3.199855   1.000000
   44        3.348799   1.000000
   45        3.411505   1.000000
   46        3.485565   1.000000
   47        3.556449   1.000000
   48        4.446725   1.000000
   49        4.747420   1.000000
   50        5.103097   1.000000
   51        5.173929   1.000000
   52        5.738449   1.000000
   53        6.075032   1.000000
   54        6.298167   1.000000
   55        6.628719   1.000000
   56        6.686225   1.000000
   57        7.077773   0.000000
   58        8.034009   0.000000
   59        8.604868   0.000000
   60        9.168084   0.000000
   61       10.647912   0.000000
   62       11.333461   0.000000
   63       11.524641   0.000000
   64       11.759166   0.000000
   65       12.097957   0.000000
   66       12.506717   0.000000
   67       12.783129   0.000000
   68       13.200920   0.000000
 
  0.0000000E+00  0.1578947E+00  0.0000000E+00  0.7142857E-02
    1       -6.643162   1.000000
    2       -6.188551   1.000000
    3       -6.069782   1.000000
    4       -5.963755   1.000000
    5        0.474826   1.000000
    6        0.529509   1.000000
    7        0.572503   1.000000
    8        0.737809   1.000000
    9        0.809296   1.000000
   10        1.070769   1.000000
   11        1.084448   1.000000
   12        1.122288   1.000000
   13        1.244473   1.000000
   14        1.280448   1.000000
   15        1.474254   1.000000
   16        1.522053   1.000000
   17        1.567820   1.000000
   18        1.663373   1.000000
   19        1.758942   1.000000
   20        1.895153   1.000000
   21        1.951406   1.000000
   22        2.022379   1.000000
   23        2.049249   1.000000
   24        2.122038   1.000000
   25        2.172121   1.000000
   26        2.281201   1.000000
   27        2.342747   1.000000
   28        2.369340   1.000000
   29        2.391794   1.000000
   30        2.457699   1.000000
   31        2.498564   1.000000
   32        2.593769   1.000000
   33        2.631933   1.000000
   34        2.696408   1.000000
   35        2.797030   1.000000
   36        2.837576   1.000000
   37        2.877382   1.000000
   38        2.947117   1.000000
   39        3.001779   1.000000
   40        3.048323   1.000000
   41        3.082503   1.000000
   42        3.156736   1.000000
   43        3.215346   1.000000
   44        3.352916   1.000000
   45        3.401920   1.000000
   46        3.502722   1.000000
   47        3.559295   1.000000
   48        4.369332   1.000000
   49        4.723621   1.000000
   50        5.080265   1.000000
   51        5.170618   1.000000
   52        5.733890   1.000000
   53        6.094805   1.000000
   54        6.310107   1.000000
   55        6.637349   1.000000
   56        6.699171   1.000000
   57        6.996043  -0.000000
   58        8.023716   0.000000
   59        8.720724   0.000000
   60        9.245685   0.000000
   61       10.543027   0.000000
   62       11.315646   0.000000
   63       11.512002   0.000000
   64       11.773307   0.000000
   65       12.090729   0.000000
   66       12.488394   0.000000
   67       12.901429   0.000000
   68       13.260189   0.000000
 
  0.0000000E+00  0.1315789E+00  0.0000000E+00  0.7142857E-02
    1       -6.653047   1.000000
    2       -6.189219   1.000000
    3       -6.061172   1.000000
    4       -5.960678   1.000000
    5        0.475746   1.000000
    6        0.537523   1.000000
    7        0.577087   1.000000
    8        0.736062   1.000000
    9        0.802525   1.000000
   10        1.076816   1.000000
   11        1.084730   1.000000
   12        1.125906   1.000000
   13        1.235542   1.000000
   14        1.280005   1.000000
   15        1.478729   1.000000
   16        1.532975   1.000000
   17        1.582339   1.000000
   18        1.665588   1.000000
   19        1.738281   1.000000
   20        1.884124   1.000000
   21        1.952536   1.000000
   22        2.036213   1.000000
   23        2.059868   1.000000
   24        2.121365   1.000000
   25        2.187187   1.000000
   26        2.273043   1.000000
   27        2.327975   1.000000
   28        2.363126   1.000000
   29        2.389467   1.000000
   30        2.458557   1.000000
   31        2.504269   1.000000
   32        2.586728   1.000000
   33        2.622262   1.000000
   34        2.696208   1.000000
   35        2.804355   1.000000
   36        2.841288   1.000000
   37        2.879980   1.000000
   38        2.953259   1.000000
   39        2.999205   1.000000
   40        3.049120   1.000000
   41        3.084416   1.000000
   42        3.152061   1.000000
   43        3.232093   1.000000
   44        3.354781   1.000000
   45        3.385434   1.000000
   46        3.531590   1.000000
   47        3.565513   1.000000
   48        4.284518   1.000000
   49        4.707095   1.000000
   50        5.039554   1.000000
   51        5.191203   1.000000
   52        5.729791   1.000000
   53        6.114925   1.000000
   54        6.323261   1.000000
   55        6.642097   1.000000
   56        6.710777   1.000003
   57        6.919569  -0.000000
   58        8.014235   0.000000
   59        8.839527   0.000000
   60        9.315649   0.000000
   61       10.434810   0.000000
   62       11.287720   0.000000
   63       11.504102   0.000000
   64       11.787878   0.000000
   65       12.084082   0.000000
   66       12.470725   0.000000
   67       12.999039   0.000000
   68       13.269531   0.000000
 
  0.0000000E+00  0.1052632E+00  0.0000000E+00  0.7142857E-02
    1       -6.661224   1.000000
    2       -6.190168   1.000000
    3       -6.053647   1.000000
    4       -5.958101   1.000000
    5        0.476899   1.000000
    6        0.544219   1.000000
    7        0.579257   1.000000
    8        0.738285   1.000000
    9        0.797212   1.000000
   10        1.076732   1.000000
   11        1.085225   1.000000
   12        1.132680   1.000000
   13        1.227200   1.000000
   14        1.279855   1.000000
   15        1.482820   1.000000
   16        1.540443   1.000000
   17        1.597903   1.000000
   18        1.665567   1.000000
   19        1.722231   1.000000
   20        1.866432   1.000000
   21        1.956654   1.000000
   22        2.049319   1.000000
   23        2.068315   1.000000
   24        2.116072   1.000000
   25        2.211854   1.000000
   26        2.266103   1.000000
   27        2.312679   1.000000
   28        2.356596   1.000000
   29        2.388734   1.000000
   30        2.461365   1.000000
   31        2.507975   1.000000
   32        2.578685   1.000000
   33        2.614043   1.000000
   34        2.695608   1.000000
   35        2.809384   1.000000
   36        2.844667   1.000000
   37        2.883336   1.000000
   38        2.959579   1.000000
   39        2.996987   1.000000
   40        3.049535   1.000000
   41        3.086615   1.000000
   42        3.147039   1.000000
   43        3.246457   1.000000
   44        3.353188   1.000000
   45        3.374932   1.000000
   46        3.544061   1.000000
   47        3.594452   1.000000
   48        4.196240   1.000000
   49        4.698083   1.000000
   50        4.997854   1.000000
   51        5.215613   1.000000
   52        5.726406   1.000000
   53        6.134615   1.000000
   54        6.338957   1.000000
   55        6.639802   1.000000
   56        6.720674   1.000939
   57        6.852585  -0.000000
   58        8.005988   0.000000
   59        8.958055   0.000000
   60        9.375565   0.000000
   61       10.326807   0.000000
   62       11.254185   0.000000
   63       11.501122   0.000000
   64       11.800919   0.000000
   65       12.078117   0.000000
   66       12.455294   0.000000
   67       13.076075   0.000000
   68       13.282082   0.000000
 
  0.0000000E+00  0.7894737E-01  0.0000000E+00  0.7142857E-02
    1       -6.667636   1.000000
    2       -6.191122   1.000000
    3       -6.047530   1.000000
    4       -5.956058   1.000000
    5        0.478234   1.000000
    6        0.549619   1.000000
    7        0.579176   1.000000
    8        0.743355   1.000000
    9        0.792957   1.000000
   10        1.073523   1.000000
   11        1.085618   1.000000
   12        1.140644   1.000000
   13        1.219838   1.000000
   14        1.279751   1.000000
   15        1.486861   1.000000
   16        1.545125   1.000000
   17        1.610899   1.000000
   18        1.662519   1.000000
   19        1.715683   1.000000
   20        1.844786   1.000000
   21        1.962770   1.000000
   22        2.056279   1.000000
   23        2.073107   1.000000
   24        2.118658   1.000000
   25        2.235557   1.000000
   26        2.260607   1.000000
   27        2.298474   1.000000
   28        2.348813   1.000000
   29        2.390983   1.000000
   30        2.464727   1.000000
   31        2.508635   1.000000
   32        2.570498   1.000000
   33        2.608222   1.000000
   34        2.694804   1.000000
   35        2.812274   1.000000
   36        2.847430   1.000000
   37        2.887223   1.000000
   38        2.965471   1.000000
   39        2.995270   1.000000
   40        3.049650   1.000000
   41        3.088848   1.000000
   42        3.142401   1.000000
   43        3.254802   1.000000
   44        3.351381   1.000000
   45        3.372498   1.000000
   46        3.540518   1.000000
   47        3.643905   1.000000
   48        4.107692   1.000000
   49        4.695577   1.000000
   50        4.960146   1.000000
   51        5.237589   1.000000
   52        5.723843   1.000000
   53        6.152472   1.000000
   54        6.358538   1.000000
   55        6.625516   1.000000
   56        6.728564   1.016117
   57        6.801550  -0.000000
   58        7.999290   0.000000
   59        9.071880   0.000000
   60        9.422465   0.000000
   61       10.224230   0.000000
   62       11.220904   0.000000
   63       11.501100   0.000000
   64       11.811549   0.000000
   65       12.072996   0.000000
   66       12.442812   0.000000
   67       13.134530   0.000000
   68       13.295531   0.000000
 
  0.0000000E+00  0.5263158E-01  0.0000000E+00  0.7142857E-02
    1       -6.672244   1.000000
    2       -6.191907   1.000000
    3       -6.043033   1.000000
    4       -5.954575   1.000000
    5        0.479526   1.000000
    6        0.553744   1.000000
    7        0.577720   1.000000
    8        0.749540   1.000000
    9        0.789423   1.000000
   10        1.070056   1.000000
   11        1.085497   1.000000
   12        1.147899   1.000000
   13        1.213845   1.000000
   14        1.279611   1.000000
   15        1.490636   1.000000
   16        1.547781   1.000000
   17        1.617945   1.000000
   18        1.658089   1.000000
   19        1.720713   1.000000
   20        1.821643   1.000000
   21        1.969302   1.000000
   22        2.053979   1.000000
   23        2.078203   1.000000
   24        2.128139   1.000000
   25        2.250211   1.000000
   26        2.260456   1.000000
   27        2.287364   1.000000
   28        2.339898   1.000000
   29        2.396386   1.000000
   30        2.467238   1.000000
   31        2.506309   1.000000
   32        2.563757   1.000000
   33        2.604822   1.000000
   34        2.694000   1.000000
   35        2.813646   1.000000
   36        2.849444   1.000000
   37        2.890871   1.000000
   38        2.970275   1.000000
   39        2.994124   1.000000
   40        3.049596   1.000000
   41        3.090810   1.000000
   42        3.138711   1.000000
   43        3.256322   1.000000
   44        3.354256   1.000000
   45        3.373416   1.000000
   46        3.533403   1.000000
   47        3.701813   1.000000
   48        4.021781   1.000000
   49        4.697534   1.000000
   50        4.929360   1.000000
   51        5.254548   1.000000
   52        5.722098   1.000000
   53        6.166732   1.000000
   54        6.382381   1.000000
   55        6.596992   1.000000
   56        6.734192   1.035312
   57        6.771329  -0.001063
   58        7.994363   0.000000
   59        9.173893   0.000000
   60        9.453100   0.000000
   61       10.135229   0.000000
   62       11.193097   0.000000
   63       11.502215   0.000000
   64       11.819373   0.000000
   65       12.068977   0.000000
   66       12.433658   0.000000
   67       13.175675   0.000000
   68       13.304298   0.000000
 
  0.0000000E+00  0.2631579E-01  0.0000000E+00  0.7142857E-02
    1       -6.675017   1.000000
    2       -6.192417   1.000000
    3       -6.040287   1.000000
    4       -5.953678   1.000000
    5        0.480474   1.000000
    6        0.556488   1.000000
    7        0.576051   1.000000
    8        0.754799   1.000000
    9        0.786675   1.000000
   10        1.067606   1.000000
   11        1.085189   1.000000
   12        1.153034   1.000000
   13        1.209768   1.000000
   14        1.279473   1.000000
   15        1.493471   1.000000
   16        1.549036   1.000000
   17        1.619274   1.000000
   18        1.655470   1.000000
   19        1.733007   1.000000
   20        1.800209   1.000000
   21        1.974500   1.000000
   22        2.048981   1.000000
   23        2.082593   1.000000
   24        2.137365   1.000000
   25        2.248698   1.000000
   26        2.268872   1.000000
   27        2.283173   1.000000
   28        2.331563   1.000000
   29        2.402637   1.000000
   30        2.468033   1.000000
   31        2.503005   1.000000
   32        2.559608   1.000000
   33        2.603224   1.000000
   34        2.693402   1.000000
   35        2.814159   1.000000
   36        2.850670   1.000000
   37        2.893436   1.000000
   38        2.973398   1.000000
   39        2.993525   1.000000
   40        3.049498   1.000000
   41        3.092161   1.000000
   42        3.136370   1.000000
   43        3.254617   1.000000
   44        3.358717   1.000000
   45        3.375401   1.000000
   46        3.526948   1.000000
   47        3.763421   1.000000
   48        3.942997   1.000000
   49        4.700958   1.000000
   50        4.908654   1.000000
   51        5.265161   1.000000
   52        5.721103   1.000000
   53        6.175859   1.000000
   54        6.407139   1.000000
   55        6.563743   1.000000
   56        6.737400   1.006596
   57        6.758179  -0.035390
   58        7.991356   0.000000
   59        9.251255   0.000000
   60        9.466075   0.000000
   61       10.072040   0.000000
   62       11.174733   0.000000
   63       11.503288   0.000000
   64       11.824174   0.000000
   65       12.066380   0.000000
   66       12.428085   0.000000
   67       13.200330   0.000000
   68       13.309376   0.000000
 
  0.0000000E+00  0.0000000E+00  0.0000000E+00  0.7142857E-02
    1       -6.675938   1.000000
    2       -6.192594   1.000000
    3       -6.039365   1.000000
    4       -5.953377   1.000000
    5        0.480823   1.000000
    6        0.557495   1.000000
    7        0.575313   1.000000
    8        0.756945   1.000000
    9        0.785527   1.000000
   10        1.066734   1.000000
   11        1.085041   1.000000
   12        1.154915   1.000000
   13        1.208288   1.000000
   14        1.279414   1.000000
   15        1.494546   1.000000
   16        1.549385   1.000000
   17        1.618960   1.000000
   18        1.654800   1.000000
   19        1.741191   1.000000
   20        1.789319   1.000000
   21        1.976536   1.000000
   22        2.046762   1.000000
   23        2.084216   1.000000
   24        2.141112   1.000000
   25        2.247120   1.000000
   26        2.270126   1.000000
   27        2.284890   1.000000
   28        2.327705   1.000000
   29        2.405547   1.000000
   30        2.467907   1.000000
   31        2.501523   1.000000
   32        2.558252   1.000000
   33        2.602778   1.000000
   34        2.693180   1.000000
   35        2.814277   1.000000
   36        2.851082   1.000000
   37        2.894354   1.000000
   38        2.974474   1.000000
   39        2.993353   1.000000
   40        3.049457   1.000000
   41        3.092643   1.000000
   42        3.135575   1.000000
   43        3.253583   1.000000
   44        3.360539   1.000000
   45        3.376564   1.000000
   46        3.524323   1.000000
   47        3.804270   1.000000
   48        3.896345   1.000000
   49        4.702612   1.000000
   50        4.901249   1.000000
   51        5.268768   1.000000
   52        5.720781   1.000000
   53        6.178983   1.000000
   54        6.419810   1.000000
   55        6.547195   1.000000
   56        6.738367   0.983958
   57        6.754814  -0.005378
   58        7.990342   0.000000
   59        9.282177   0.000000
   60        9.467725   0.000000
   61       10.048692   0.000000
   62       11.168323   0.000000
   63       11.503710   0.000000
   64       11.825790   0.000000
   65       12.065479   0.000000
   66       12.426213   0.000000
   67       13.208644   0.000000
   68       13.311916   0.000000
 
  0.0000000E+00  0.0000000E+00  0.0000000E+00  0.7142857E-02
    1       -6.675938   1.000000
    2       -6.192594   1.000000
    3       -6.039365   1.000000
    4       -5.953377   1.000000
    5        0.480823   1.000000
    6        0.557495   1.000000
    7        0.575313   1.000000
    8        0.756945   1.000000
    9        0.785527   1.000000
   10        1.066734   1.000000
   11        1.085041   1.000000
   12        1.154915   1.000000
   13        1.208288   1.000000
   14        1.279414   1.000000
   15        1.494546   1.000000
   16        1.549385   1.000000
   17        1.618960   1.000000
   18        1.654800   1.000000
   19        1.741191   1.000000
   20        1.789319   1.000000
   21        1.976536   1.000000
   22        2.046762   1.000000
   23        2.084216   1.000000
   24        2.141112   1.000000
   25        2.247120   1.000000
   26        2.270126   1.000000
   27        2.284890   1.000000
   28        2.327705   1.000000
   29        2.405547   1.000000
   30        2.467907   1.000000
   31        2.501523   1.000000
   32        2.558252   1.000000
   33        2.602778   1.000000
   34        2.693180   1.000000
   35        2.814277   1.000000
   36        2.851082   1.000000
   37        2.894354   1.000000
   38        2.974474   1.000000
   39        2.993353   1.000000
   40        3.049457   1.000000
   41        3.092643   1.000000
   42        3.135575   1.000000
   43        3.253583   1.000000
   44        3.360539   1.000000
   45        3.376564   1.000000
   46        3.524323   1.000000
   47        3.804270   1.000000
   48        3.896345   1.000000
   49        4.702612   1.000000
   50        4.901249   1.000000
   51        5.268768   1.000000
   52        5.720781   1.000000
   53        6.178983   1.000000
   54        6.419810   1.000000
   55        6.547195   1.000000
   56        6.738367   0.983958
   57        6.754814  -0.005378
   58        7.990342   0.000000
   59        9.282177   0.000000
   60        9.467725   0.000000
   61       10.048692   0.000000
   62       11.168323   0.000000
   63       11.503710   0.000000
   64       11.825791   0.000000
   65       12.065479   0.000000
   66       12.426215   0.000000
   67       13.208677   0.000000
   68       13.311538   0.000000
 
  0.0000000E+00  0.0000000E+00  0.2631579E-01  0.7142857E-02
    1       -6.675261   1.000000
    2       -6.193612   1.000000
    3       -6.039305   1.000000
    4       -5.953239   1.000000
    5        0.480674   1.000000
    6        0.557822   1.000000
    7        0.575739   1.000000
    8        0.753595   1.000000
    9        0.788483   1.000000
   10        1.056973   1.000000
   11        1.088520   1.000000
   12        1.160880   1.000000
   13        1.208912   1.000000
   14        1.282103   1.000000
   15        1.494467   1.000000
   16        1.549535   1.000000
   17        1.618963   1.000000
   18        1.654721   1.000000
   19        1.741491   1.000000
   20        1.789741   1.000000
   21        1.974886   1.000000
   22        2.042492   1.000000
   23        2.086564   1.000000
   24        2.143037   1.000000
   25        2.241910   1.000000
   26        2.267525   1.000000
   27        2.287369   1.000000
   28        2.331300   1.000000
   29        2.408267   1.000000
   30        2.466284   1.000000
   31        2.500456   1.000000
   32        2.557491   1.000000
   33        2.601702   1.000000
   34        2.697291   1.000000
   35        2.813684   1.000000
   36        2.847790   1.000000
   37        2.895428   1.000000
   38        2.973515   1.000000
   39        2.993266   1.000000
   40        3.049717   1.000000
   41        3.091612   1.000000
   42        3.131576   1.000000
   43        3.258786   1.000000
   44        3.360398   1.000000
   45        3.378395   1.000000
   46        3.523064   1.000000
   47        3.803311   1.000000
   48        3.898144   1.000000
   49        4.701059   1.000000
   50        4.903475   1.000000
   51        5.273015   1.000000
   52        5.715130   1.000000
   53        6.177283   1.000000
   54        6.418537   1.000000
   55        6.522581   1.000000
   56        6.737064   1.012658
   57        6.780538  -0.000006
   58        7.999092   0.000000
   59        9.267869   0.000000
   60        9.479682   0.000000
   61       10.051664   0.000000
   62       11.170665   0.000000
   63       11.503159   0.000000
   64       11.823738   0.000000
   65       12.064026   0.000000
   66       12.423260   0.000000
   67       13.211631   0.000000
   68       13.312368   0.000000
 
  0.0000000E+00  0.0000000E+00  0.5263158E-01  0.7142857E-02
    1       -6.673222   1.000000
    2       -6.196657   1.000000
    3       -6.039103   1.000000
    4       -5.952848   1.000000
    5        0.480222   1.000000
    6        0.558428   1.000000
    7        0.577279   1.000000
    8        0.746394   1.000000
    9        0.794764   1.000000
   10        1.038210   1.000000
   11        1.091277   1.000000
   12        1.176003   1.000000
   13        1.210451   1.000000
   14        1.290232   1.000000
   15        1.494205   1.000000
   16        1.550015   1.000000
   17        1.618991   1.000000
   18        1.654480   1.000000
   19        1.742312   1.000000
   20        1.791096   1.000000
   21        1.970039   1.000000
   22        2.032166   1.000000
   23        2.091721   1.000000
   24        2.147895   1.000000
   25        2.229261   1.000000
   26        2.263602   1.000000
   27        2.290083   1.000000
   28        2.340093   1.000000
   29        2.415854   1.000000
   30        2.461864   1.000000
   31        2.497974   1.000000
   32        2.555338   1.000000
   33        2.599102   1.000000
   34        2.708378   1.000000
   35        2.811715   1.000000
   36        2.839638   1.000000
   37        2.897061   1.000000
   38        2.970590   1.000000
   39        2.992654   1.000000
   40        3.050309   1.000000
   41        3.087820   1.000000
   42        3.124446   1.000000
   43        3.270583   1.000000
   44        3.359871   1.000000
   45        3.384364   1.000000
   46        3.519300   1.000000
   47        3.800427   1.000000
   48        3.903768   1.000000
   49        4.696374   1.000000
   50        4.910069   1.000000
   51        5.285317   1.000000
   52        5.698801   1.000000
   53        6.171678   1.000000
   54        6.413574   1.000000
   55        6.470308   1.000000
   56        6.734971   1.033387
   57        6.836148  -0.000000
   58        8.024908   0.000000
   59        9.232165   0.000000
   60        9.508343   0.000000
   61       10.060542   0.000000
   62       11.177607   0.000000
   63       11.501416   0.000000
   64       11.817780   0.000000
   65       12.059637   0.000000
   66       12.414522   0.000000
   67       13.218649   0.000000
   68       13.315153   0.000000
 
  0.0000000E+00  0.0000000E+00  0.7894737E-01  0.7142857E-02
    1       -6.669829   1.000000
    2       -6.201694   1.000000
    3       -6.038703   1.000000
    4       -5.952277   1.000000
    5        0.479435   1.000000
    6        0.558440   1.000000
    7        0.580478   1.000000
    8        0.738729   1.000000
    9        0.801679   1.000000
   10        1.016872   1.000000
   11        1.091595   1.000000
   12        1.195281   1.000000
   13        1.212645   1.000000
   14        1.303689   1.000000
   15        1.493684   1.000000
   16        1.550891   1.000000
   17        1.619091   1.000000
   18        1.654062   1.000000
   19        1.743437   1.000000
   20        1.793604   1.000000
   21        1.962224   1.000000
   22        2.019204   1.000000
   23        2.097537   1.000000
   24        2.153313   1.000000
   25        2.214410   1.000000
   26        2.259824   1.000000
   27        2.290987   1.000000
   28        2.349652   1.000000
   29        2.426518   1.000000
   30        2.456541   1.000000
   31        2.495662   1.000000
   32        2.552186   1.000000
   33        2.596021   1.000000
   34        2.723857   1.000000
   35        2.807622   1.000000
   36        2.829770   1.000000
   37        2.896659   1.000000
   38        2.965746   1.000000
   39        2.990458   1.000000
   40        3.050543   1.000000
   41        3.081765   1.000000
   42        3.121459   1.000000
   43        3.282660   1.000000
   44        3.358828   1.000000
   45        3.395238   1.000000
   46        3.513094   1.000000
   47        3.795630   1.000000
   48        3.913787   1.000000
   49        4.688448   1.000000
   50        4.920793   1.000000
   51        5.304280   1.000000
   52        5.673663   1.000000
   53        6.160393   1.000000
   54        6.391218   1.000000
   55        6.426472   1.000000
   56        6.731775   1.030372
   57        6.901799  -0.000000
   58        8.066577   0.000000
   59        9.184861   0.000000
   60        9.543921   0.000000
   61       10.075217   0.000000
   62       11.188878   0.000000
   63       11.498188   0.000000
   64       11.808475   0.000000
   65       12.052248   0.000000
   66       12.400345   0.000000
   67       13.228614   0.000000
   68       13.319760   0.000000
 
  0.0000000E+00  0.0000000E+00  0.1052632E+00  0.7142857E-02
    1       -6.665100   1.000000
    2       -6.208661   1.000000
    3       -6.038029   1.000000
    4       -5.951624   1.000000
    5        0.478236   1.000000
    6        0.557172   1.000000
    7        0.585583   1.000000
    8        0.732453   1.000000
    9        0.808391   1.000000
   10        0.994917   1.000000
   11        1.090488   1.000000
   12        1.208740   1.000000
   13        1.222159   1.000000
   14        1.321844   1.000000
   15        1.492801   1.000000
   16        1.552255   1.000000
   17        1.619339   1.000000
   18        1.653459   1.000000
   19        1.744609   1.000000
   20        1.797503   1.000000
   21        1.951706   1.000000
   22        2.005740   1.000000
   23        2.103051   1.000000
   24        2.155955   1.000000
   25        2.201291   1.000000
   26        2.256562   1.000000
   27        2.290622   1.000000
   28        2.355497   1.000000
   29        2.437156   1.000000
   30        2.453952   1.000000
   31        2.495618   1.000000
   32        2.548667   1.000000
   33        2.593111   1.000000
   34        2.741250   1.000000
   35        2.800049   1.000000
   36        2.821045   1.000000
   37        2.892419   1.000000
   38        2.959290   1.000000
   39        2.985843   1.000000
   40        3.049514   1.000000
   41        3.078003   1.000000
   42        3.124068   1.000000
   43        3.291433   1.000000
   44        3.357263   1.000000
   45        3.410674   1.000000
   46        3.504761   1.000000
   47        3.789038   1.000000
   48        3.928892   1.000000
   49        4.677042   1.000000
   50        4.935257   1.000000
   51        5.327303   1.000000
   52        5.642982   1.000000
   53        6.139756   1.000000
   54        6.340686   1.000000
   55        6.413369   1.000000
   56        6.727272   1.011331
   57        6.970678  -0.000000
   58        8.122343   0.000000
   59        9.130824   0.000000
   60        9.581545   0.000000
   61       10.095531   0.000000
   62       11.204013   0.000000
   63       11.493036   0.000000
   64       11.796703   0.000000
   65       12.041832   0.000000
   66       12.381237   0.000000
   67       13.238619   0.000000
   68       13.329672   0.000000
 
  0.0000000E+00  0.0000000E+00  0.1315789E+00  0.7142857E-02
    1       -6.659059   1.000000
    2       -6.217469   1.000000
    3       -6.037009   1.000000
    4       -5.951006   1.000000
    5        0.476495   1.000000
    6        0.554448   1.000000
    7        0.592332   1.000000
    8        0.728714   1.000000
    9        0.814827   1.000000
   10        0.973302   1.000000
   11        1.088425   1.000000
   12        1.210336   1.000000
   13        1.243529   1.000000
   14        1.343564   1.000000
   15        1.491464   1.000000
   16        1.554173   1.000000
   17        1.619814   1.000000
   18        1.652698   1.000000
   19        1.745627   1.000000
   20        1.802883   1.000000
   21        1.938886   1.000000
   22        1.993112   1.000000
   23        2.107466   1.000000
   24        2.152536   1.000000
   25        2.192646   1.000000
   26        2.254441   1.000000
   27        2.289526   1.000000
   28        2.354608   1.000000
   29        2.444650   1.000000
   30        2.456354   1.000000
   31        2.500797   1.000000
   32        2.545540   1.000000
   33        2.590784   1.000000
   34        2.758295   1.000000
   35        2.788971   1.000000
   36        2.814300   1.000000
   37        2.883651   1.000000
   38        2.951699   1.000000
   39        2.979900   1.000000
   40        3.047550   1.000000
   41        3.078713   1.000000
   42        3.131223   1.000000
   43        3.296355   1.000000
   44        3.355239   1.000000
   45        3.428289   1.000000
   46        3.495374   1.000000
   47        3.780885   1.000000
   48        3.949649   1.000000
   49        4.661732   1.000000
   50        4.952957   1.000000
   51        5.349832   1.000000
   52        5.611947   1.000000
   53        6.104944   1.000000
   54        6.296428   1.000000
   55        6.404930   1.000000
   56        6.721360   1.001277
   57        7.040506   0.000000
   58        8.190166   0.000000
   59        9.072115   0.000000
   60        9.619088   0.000000
   61       10.121300   0.000000
   62       11.222289   0.000000
   63       11.485422   0.000000
   64       11.783564   0.000000
   65       12.028494   0.000000
   66       12.357786   0.000000
   67       13.244569   0.000000
   68       13.341078   0.000000
 
  0.0000000E+00  0.0000000E+00  0.1578947E+00  0.7142857E-02
    1       -6.651737   1.000000
    2       -6.227994   1.000000
    3       -6.035590   1.000000
    4       -5.950531   1.000000
    5        0.474068   1.000000
    6        0.550343   1.000000
    7        0.600376   1.000000
    8        0.728119   1.000000
    9        0.821245   1.000000
   10        0.952640   1.000000
   11        1.085442   1.000000
   12        1.209953   1.000000
   13        1.266201   1.000000
   14        1.367521   1.000000
   15        1.489633   1.000000
   16        1.556647   1.000000
   17        1.620591   1.000000
   18        1.651863   1.000000
   19        1.746398   1.000000
   20        1.809571   1.000000
   21        1.924567   1.000000
   22        1.982049   1.000000
   23        2.109538   1.000000
   24        2.144030   1.000000
   25        2.187496   1.000000
   26        2.253229   1.000000
   27        2.288376   1.000000
   28        2.347792   1.000000
   29        2.445744   1.000000
   30        2.464697   1.000000
   31        2.512205   1.000000
   32        2.543501   1.000000
   33        2.589664   1.000000
   34        2.769959   1.000000
   35        2.778754   1.000000
   36        2.807927   1.000000
   37        2.871895   1.000000
   38        2.943542   1.000000
   39        2.974911   1.000000
   40        3.045631   1.000000
   41        3.081999   1.000000
   42        3.142373   1.000000
   43        3.298328   1.000000
   44        3.352825   1.000000
   45        3.442580   1.000000
   46        3.488832   1.000000
   47        3.771482   1.000000
   48        3.976360   1.000000
   49        4.641907   1.000000
   50        4.973318   1.000000
   51        5.364178   1.000000
   52        5.588556   1.000000
   53        6.055184   1.000000
   54        6.266879   1.000000
   55        6.396141   1.000000
   56        6.713951   1.000026
   57        7.110428   0.000000
   58        8.267969   0.000000
   59        9.009712   0.000000
   60        9.655394   0.000000
   61       10.152343   0.000000
   62       11.242622   0.000000
   63       11.474944   0.000000
   64       11.770094   0.000000
   65       12.012635   0.000000
   66       12.330603   0.000000
   67       13.235806   0.000000
   68       13.342240   0.000000
 
  0.0000000E+00  0.0000000E+00  0.1842105E+00  0.7142857E-02
    1       -6.643174   1.000000
    2       -6.240094   1.000000
    3       -6.033743   1.000000
    4       -5.950295   1.000000
    5        0.470857   1.000000
    6        0.545014   1.000000
    7        0.609564   1.000000
    8        0.730626   1.000000
    9        0.828088   1.000000
   10        0.933401   1.000000
   11        1.081360   1.000000
   12        1.208992   1.000000
   13        1.288391   1.000000
   14        1.392323   1.000000
   15        1.487400   1.000000
   16        1.559571   1.000000
   17        1.621736   1.000000
   18        1.651127   1.000000
   19        1.746900   1.000000
   20        1.817065   1.000000
   21        1.910076   1.000000
   22        1.972756   1.000000
   23        2.107104   1.000000
   24        2.135437   1.000000
   25        2.182748   1.000000
   26        2.250623   1.000000
   27        2.288363   1.000000
   28        2.338828   1.000000
   29        2.440744   1.000000
   30        2.477639   1.000000
   31        2.526747   1.000000
   32        2.542959   1.000000
   33        2.590941   1.000000
   34        2.759935   1.000000
   35        2.782443   1.000000
   36        2.801372   1.000000
   37        2.861934   1.000000
   38        2.935293   1.000000
   39        2.972147   1.000000
   40        3.043897   1.000000
   41        3.086063   1.000000
   42        3.157075   1.000000
   43        3.298381   1.000000
   44        3.350074   1.000000
   45        3.443582   1.000000
   46        3.494183   1.000000
   47        3.761151   1.000000
   48        4.008975   1.000000
   49        4.616841   1.000000
   50        4.995723   1.000000
   51        5.361180   1.000000
   52        5.581424   1.000000
   53        5.996879   1.000000
   54        6.249073   1.000000
   55        6.386573   1.000000
   56        6.704965   1.000000
   57        7.180114   0.000000
   58        8.353787   0.000000
   59        8.944184   0.000000
   60        9.689577   0.000000
   61       10.188499   0.000000
   62       11.263362   0.000000
   63       11.461766   0.000000
   64       11.756880   0.000000
   65       11.995166   0.000000
   66       12.300392   0.000000
   67       13.211858   0.000000
   68       13.334867   0.000000
 
  0.0000000E+00  0.0000000E+00  0.2105263E+00  0.7142857E-02
    1       -6.633420   1.000000
    2       -6.253605   1.000000
    3       -6.031467   1.000000
    4       -5.950377   1.000000
    5        0.466877   1.000000
    6        0.538686   1.000000
    7        0.619904   1.000000
    8        0.735537   1.000000
    9        0.835913   1.000000
   10        0.916019   1.000000
   11        1.075922   1.000000
   12        1.207806   1.000000
   13        1.309396   1.000000
   14        1.416425   1.000000
   15        1.485156   1.000000
   16        1.562713   1.000000
   17        1.623293   1.000000
   18        1.650768   1.000000
   19        1.747091   1.000000
   20        1.824514   1.000000
   21        1.897164   1.000000
   22        1.965184   1.000000
   23        2.098708   1.000000
   24        2.129902   1.000000
   25        2.177537   1.000000
   26        2.243413   1.000000
   27        2.290308   1.000000
   28        2.331393   1.000000
   29        2.433409   1.000000
   30        2.490791   1.000000
   31        2.539504   1.000000
   32        2.545517   1.000000
   33        2.596244   1.000000
   34        2.745816   1.000000
   35        2.774549   1.000000
   36        2.799012   1.000000
   37        2.859101   1.000000
   38        2.927261   1.000000
   39        2.971737   1.000000
   40        3.042205   1.000000
   41        3.090152   1.000000
   42        3.174605   1.000000
   43        3.297257   1.000000
   44        3.347032   1.000000
   45        3.432679   1.000000
   46        3.510104   1.000000
   47        3.750180   1.000000
   48        4.047065   1.000000
   49        4.585867   1.000000
   50        5.019546   1.000000
   51        5.339080   1.000000
   52        5.589837   1.000000
   53        5.939272   1.000000
   54        6.238205   1.000000
   55        6.376361   1.000000
   56        6.694321   1.000000
   57        7.249463   0.000000
   58        8.445837   0.000000
   59        8.875939   0.000000
   60        9.720722   0.000000
   61       10.229635   0.000000
   62       11.281860   0.000000
   63       11.447289   0.000000
   64       11.743606   0.000000
   65       11.977739   0.000000
   66       12.267879   0.000000
   67       13.133253   0.000000
   68       13.339844   0.000000
 
  0.0000000E+00  0.0000000E+00  0.2368421E+00  0.7142857E-02
    1       -6.622529   1.000000
    2       -6.268357   1.000000
    3       -6.028784   1.000000
    4       -5.950829   1.000000
    5        0.462283   1.000000
    6        0.531623   1.000000
    7        0.631430   1.000000
    8        0.741725   1.000000
    9        0.845207   1.000000
   10        0.901026   1.000000
   11        1.068895   1.000000
   12        1.206569   1.000000
   13        1.328624   1.000000
   14        1.437587   1.000000
   15        1.484162   1.000000
   16        1.565768   1.000000
   17        1.625283   1.000000
   18        1.651154   1.000000
   19        1.746871   1.000000
   20        1.830725   1.000000
   21        1.887805   1.000000
   22        1.959232   1.000000
   23        2.086365   1.000000
   24        2.126054   1.000000
   25        2.172431   1.000000
   26        2.230664   1.000000
   27        2.292921   1.000000
   28        2.327638   1.000000
   29        2.426087   1.000000
   30        2.501377   1.000000
   31        2.541605   1.000000
   32        2.558355   1.000000
   33        2.606180   1.000000
   34        2.730949   1.000000
   35        2.756918   1.000000
   36        2.797811   1.000000
   37        2.863121   1.000000
   38        2.919712   1.000000
   39        2.973465   1.000000
   40        3.040526   1.000000
   41        3.094064   1.000000
   42        3.193869   1.000000
   43        3.295421   1.000000
   44        3.343726   1.000000
   45        3.418649   1.000000
   46        3.528862   1.000000
   47        3.738813   1.000000
   48        4.089781   1.000000
   49        4.548690   1.000000
   50        5.044167   1.000000
   51        5.305123   1.000000
   52        5.600357   1.000000
   53        5.892886   1.000000
   54        6.231267   1.000000
   55        6.365861   1.000000
   56        6.681937   1.000000
   57        7.318515   0.000000
   58        8.542525   0.000000
   59        8.805342   0.000000
   60        9.747780   0.000000
   61       10.275638   0.000000
   62       11.293949   0.000000
   63       11.434721   0.000000
   64       11.728802   0.000000
   65       11.962831   0.000000
   66       12.234065   0.000000
   67       13.049531   0.000000
   68       13.238332   0.000000
 
  0.0000000E+00  0.0000000E+00  0.2631579E+00  0.7142857E-02
    1       -6.610570   1.000000
    2       -6.284172   1.000000
    3       -6.025732   1.000000
    4       -5.951682   1.000000
    5        0.457343   1.000000
    6        0.524081   1.000000
    7        0.644062   1.000000
    8        0.748054   1.000000
    9        0.855577   1.000000
   10        0.889633   1.000000
   11        1.060159   1.000000
   12        1.205310   1.000000
   13        1.345437   1.000000
   14        1.451510   1.000000
   15        1.487967   1.000000
   16        1.568475   1.000000
   17        1.627693   1.000000
   18        1.652668   1.000000
   19        1.746139   1.000000
   20        1.834681   1.000000
   21        1.883530   1.000000
   22        1.954809   1.000000
   23        2.072391   1.000000
   24        2.122162   1.000000
   25        2.168037   1.000000
   26        2.213706   1.000000
   27        2.294140   1.000000
   28        2.327697   1.000000
   29        2.420507   1.000000
   30        2.508107   1.000000
   31        2.541577   1.000000
   32        2.572734   1.000000
   33        2.619099   1.000000
   34        2.714676   1.000000
   35        2.738848   1.000000
   36        2.795352   1.000000
   37        2.869762   1.000000
   38        2.912994   1.000000
   39        2.977064   1.000000
   40        3.038971   1.000000
   41        3.097765   1.000000
   42        3.213147   1.000000
   43        3.293203   1.000000
   44        3.340155   1.000000
   45        3.406104   1.000000
   46        3.547968   1.000000
   47        3.727252   1.000000
   48        4.135609   1.000000
   49        4.505918   1.000000
   50        5.068954   1.000000
   51        5.266197   1.000000
   52        5.596197   1.000000
   53        5.869739   1.000000
   54        6.226741   1.000000
   55        6.355619   1.000000
   56        6.667741   1.000000
   57        7.387382   0.000000
   58        8.642321   0.000000
   59        8.732848   0.000000
   60        9.769544   0.000000
   61       10.326386   0.000000
   62       11.294855   0.000000
   63       11.427947   0.000000
   64       11.710514   0.000000
   65       11.953271   0.000000
   66       12.200266   0.000000
   67       12.904617   0.000000
   68       13.116929   0.000000
 
  0.0000000E+00  0.0000000E+00  0.2894737E+00  0.7142857E-02
    1       -6.597615   1.000000
    2       -6.300871   1.000000
    3       -6.022366   1.000000
    4       -5.952943   1.000000
    5        0.452388   1.000000
    6        0.516278   1.000000
    7        0.657502   1.000000
    8        0.753849   1.000000
    9        0.862187   1.000000
   10        0.886985   1.000000
   11        1.049774   1.000000
   12        1.203897   1.000000
   13        1.359120   1.000000
   14        1.455169   1.000000
   15        1.499123   1.000000
   16        1.570819   1.000000
   17        1.630450   1.000000
   18        1.655550   1.000000
   19        1.744950   1.000000
   20        1.836849   1.000000
   21        1.883940   1.000000
   22        1.951814   1.000000
   23        2.057848   1.000000
   24        2.117878   1.000000
   25        2.164577   1.000000
   26        2.194523   1.000000
   27        2.293187   1.000000
   28        2.330077   1.000000
   29        2.417930   1.000000
   30        2.510213   1.000000
   31        2.542914   1.000000
   32        2.584992   1.000000
   33        2.632249   1.000000
   34        2.697593   1.000000
   35        2.724845   1.000000
   36        2.792367   1.000000
   37        2.875872   1.000000
   38        2.907684   1.000000
   39        2.982153   1.000000
   40        3.037766   1.000000
   41        3.101262   1.000000
   42        3.229439   1.000000
   43        3.291112   1.000000
   44        3.336289   1.000000
   45        3.398889   1.000000
   46        3.566975   1.000000
   47        3.715697   1.000000
   48        4.181438   1.000000
   49        4.460230   1.000000
   50        5.093160   1.000000
   51        5.225592   1.000000
   52        5.569880   1.000000
   53        5.874680   1.000000
   54        6.223778   1.000000
   55        6.346431   1.000000
   56        6.651668   1.000000
   57        7.456232   0.000000
   58        8.657910   0.000000
   59        8.744839   0.000000
   60        9.784677   0.000000
   61       10.381724   0.000000
   62       11.283563   0.000000
   63       11.426608   0.000000
   64       11.687829   0.000000
   65       11.950944   0.000000
   66       12.168590   0.000000
   67       12.788443   0.000000
   68       13.014395   0.000000
 
  0.0000000E+00  0.0000000E+00  0.3157895E+00  0.7142857E-02
    1       -6.583758   1.000000
    2       -6.318255   1.000000
    3       -6.018756   1.000000
    4       -5.954593   1.000000
    5        0.447742   1.000000
    6        0.508412   1.000000
    7        0.671158   1.000000
    8        0.759208   1.000000
    9        0.859137   1.000000
   10        0.898516   1.000000
   11        1.038093   1.000000
   12        1.202045   1.000000
   13        1.368903   1.000000
   14        1.453410   1.000000
   15        1.512674   1.000000
   16        1.573175   1.000000
   17        1.633431   1.000000
   18        1.659752   1.000000
   19        1.743637   1.000000
   20        1.839077   1.000000
   21        1.886725   1.000000
   22        1.950063   1.000000
   23        2.043320   1.000000
   24        2.113133   1.000000
   25        2.160972   1.000000
   26        2.176267   1.000000
   27        2.290198   1.000000
   28        2.333353   1.000000
   29        2.418788   1.000000
   30        2.507414   1.000000
   31        2.546908   1.000000
   32        2.592044   1.000000
   33        2.642235   1.000000
   34        2.684645   1.000000
   35        2.715470   1.000000
   36        2.789439   1.000000
   37        2.879693   1.000000
   38        2.904737   1.000000
   39        2.988131   1.000000
   40        3.037227   1.000000
   41        3.104569   1.000000
   42        3.238225   1.000000
   43        3.290282   1.000000
   44        3.332157   1.000000
   45        3.401071   1.000000
   46        3.585977   1.000000
   47        3.704437   1.000000
   48        4.218882   1.000000
   49        4.420148   1.000000
   50        5.115170   1.000000
   51        5.184807   1.000000
   52        5.529099   1.000000
   53        5.898950   1.000000
   54        6.221704   1.000000
   55        6.339431   1.000000
   56        6.633676   1.000000
   57        7.525254   0.000000
   58        8.582386   0.000000
   59        8.847380   0.000000
   60        9.791797   0.000000
   61       10.441398   0.000000
   62       11.264404   0.000000
   63       11.423949   0.000000
   64       11.662393   0.000000
   65       11.955429   0.000000
   66       12.142229   0.000000
   67       12.680411   0.000000
   68       12.921872   0.000000
 
  0.0000000E+00  0.0000000E+00  0.3421053E+00  0.7142857E-02
    1       -6.569120   1.000000
    2       -6.336119   1.000000
    3       -6.014986   1.000000
    4       -5.956594   1.000000
    5        0.443680   1.000000
    6        0.500678   1.000000
    7        0.684098   1.000000
    8        0.764982   1.000000
    9        0.853483   1.000000
   10        0.915756   1.000000
   11        1.025989   1.000000
   12        1.199331   1.000000
   13        1.374174   1.000000
   14        1.450538   1.000000
   15        1.524555   1.000000
   16        1.576173   1.000000
   17        1.636487   1.000000
   18        1.664883   1.000000
   19        1.742738   1.000000
   20        1.842719   1.000000
   21        1.889721   1.000000
   22        1.949221   1.000000
   23        2.029319   1.000000
   24        2.107263   1.000000
   25        2.149665   1.000000
   26        2.168782   1.000000
   27        2.285504   1.000000
   28        2.337178   1.000000
   29        2.422499   1.000000
   30        2.500707   1.000000
   31        2.552209   1.000000
   32        2.592227   1.000000
   33        2.645211   1.000000
   34        2.681611   1.000000
   35        2.710433   1.000000
   36        2.786926   1.000000
   37        2.880500   1.000000
   38        2.904927   1.000000
   39        2.994185   1.000000
   40        3.037737   1.000000
   41        3.107724   1.000000
   42        3.236619   1.000000
   43        3.291388   1.000000
   44        3.327975   1.000000
   45        3.414928   1.000000
   46        3.605043   1.000000
   47        3.694137   1.000000
   48        4.226337   1.000000
   49        4.407896   1.000000
   50        5.120763   1.000000
   51        5.156539   1.000000
   52        5.484738   1.000000
   53        5.931267   1.000000
   54        6.219752   1.000000
   55        6.336112   1.000000
   56        6.613767   1.000000
   57        7.594638   0.000000
   58        8.505740   0.000000
   59        8.949661   0.000000
   60        9.789620   0.000000
   61       10.505014   0.000000
   62       11.242339   0.000000
   63       11.411802   0.000000
   64       11.637971   0.000000
   65       11.963848   0.000000
   66       12.125884   0.000000
   67       12.582179   0.000000
   68       12.831978   0.000000
 
  0.0000000E+00  0.0000000E+00  0.3684211E+00  0.7142857E-02
    1       -6.553865   1.000000
    2       -6.354226   1.000000
    3       -6.011162   1.000000
    4       -5.958873   1.000000
    5        0.440388   1.000000
    6        0.493289   1.000000
    7        0.695132   1.000000
    8        0.772431   1.000000
    9        0.848475   1.000000
   10        0.932606   1.000000
   11        1.015542   1.000000
   12        1.195271   1.000000
   13        1.374966   1.000000
   14        1.448205   1.000000
   15        1.533574   1.000000
   16        1.580206   1.000000
   17        1.639476   1.000000
   18        1.670336   1.000000
   19        1.742723   1.000000
   20        1.848053   1.000000
   21        1.891831   1.000000
   22        1.948795   1.000000
   23        2.016371   1.000000
   24        2.098643   1.000000
   25        2.134851   1.000000
   26        2.170649   1.000000
   27        2.279662   1.000000
   28        2.341785   1.000000
   29        2.427788   1.000000
   30        2.491270   1.000000
   31        2.554995   1.000000
   32        2.589689   1.000000
   33        2.642998   1.000000
   34        2.684574   1.000000
   35        2.710064   1.000000
   36        2.785057   1.000000
   37        2.879307   1.000000
   38        2.907525   1.000000
   39        2.999457   1.000000
   40        3.039616   1.000000
   41        3.110824   1.000000
   42        3.227066   1.000000
   43        3.293201   1.000000
   44        3.323941   1.000000
   45        3.438790   1.000000
   46        3.623093   1.000000
   47        3.686960   1.000000
   48        4.190518   1.000000
   49        4.437704   1.000000
   50        5.080577   1.000000
   51        5.168330   1.000000
   52        5.443585   1.000000
   53        5.964449   1.000000
   54        6.217091   1.000000
   55        6.338081   1.000000
   56        6.592019   1.000000
   57        7.664538   0.000000
   58        8.428515   0.000000
   59        9.050280   0.000000
   60        9.777164   0.000000
   61       10.571943   0.000000
   62       11.220159   0.000000
   63       11.385725   0.000000
   64       11.617509   0.000000
   65       11.972444   0.000000
   66       12.124673   0.000000
   67       12.495968   0.000000
   68       12.744881   0.000000
 
  0.0000000E+00  0.0000000E+00  0.3947368E+00  0.7142857E-02
    1       -6.538241   1.000000
    2       -6.372268   1.000000
    3       -6.007420   1.000000
    4       -5.961317   1.000000
    5        0.437958   1.000000
    6        0.486497   1.000000
    7        0.703295   1.000000
    8        0.782500   1.000000
    9        0.844515   1.000000
   10        0.943164   1.000000
   11        1.011439   1.000000
   12        1.189466   1.000000
   13        1.372338   1.000000
   14        1.446756   1.000000
   15        1.539885   1.000000
   16        1.584982   1.000000
   17        1.642265   1.000000
   18        1.675490   1.000000
   19        1.743765   1.000000
   20        1.854696   1.000000
   21        1.892834   1.000000
   22        1.948222   1.000000
   23        2.005041   1.000000
   24        2.086113   1.000000
   25        2.124601   1.000000
   26        2.175636   1.000000
   27        2.273406   1.000000
   28        2.347410   1.000000
   29        2.432992   1.000000
   30        2.480257   1.000000
   31        2.551176   1.000000
   32        2.592103   1.000000
   33        2.639485   1.000000
   34        2.685802   1.000000
   35        2.713965   1.000000
   36        2.783928   1.000000
   37        2.877682   1.000000
   38        2.911114   1.000000
   39        3.003404   1.000000
   40        3.042826   1.000000
   41        3.114038   1.000000
   42        3.213720   1.000000
   43        3.294850   1.000000
   44        3.320133   1.000000
   45        3.468427   1.000000
   46        3.634432   1.000000
   47        3.690083   1.000000
   48        4.131621   1.000000
   49        4.490502   1.000000
   50        5.027119   1.000000
   51        5.186459   1.000000
   52        5.408823   1.000000
   53        5.994482   1.000000
   54        6.213229   1.000000
   55        6.346379   1.000000
   56        6.568660   1.000000
   57        7.735017   0.000000
   58        8.351194   0.000000
   59        9.147742   0.000000
   60        9.754005   0.000000
   61       10.641173   0.000000
   62       11.198032   0.000000
   63       11.348012   0.000000
   64       11.600714   0.000000
   65       11.979901   0.000000
   66       12.140343   0.000000
   67       12.422639   0.000000
   68       12.660901   0.000000
 
  0.0000000E+00  0.0000000E+00  0.4210526E+00  0.7142857E-02
    1       -6.522661   1.000000
    2       -6.389778   1.000000
    3       -6.003950   1.000000
    4       -5.963759   1.000000
    5        0.436375   1.000000
    6        0.480612   1.000000
    7        0.708469   1.000000
    8        0.794967   1.000000
    9        0.841492   1.000000
   10        0.942233   1.000000
   11        1.018179   1.000000
   12        1.181882   1.000000
   13        1.368054   1.000000
   14        1.445929   1.000000
   15        1.544156   1.000000
   16        1.589689   1.000000
   17        1.644705   1.000000
   18        1.679854   1.000000
   19        1.745637   1.000000
   20        1.861875   1.000000
   21        1.893055   1.000000
   22        1.947038   1.000000
   23        1.995891   1.000000
   24        2.071801   1.000000
   25        2.118787   1.000000
   26        2.182030   1.000000
   27        2.267466   1.000000
   28        2.354104   1.000000
   29        2.435624   1.000000
   30        2.470039   1.000000
   31        2.543448   1.000000
   32        2.599272   1.000000
   33        2.636059   1.000000
   34        2.683973   1.000000
   35        2.719415   1.000000
   36        2.783468   1.000000
   37        2.876434   1.000000
   38        2.914741   1.000000
   39        3.006004   1.000000
   40        3.046748   1.000000
   41        3.117561   1.000000
   42        3.199526   1.000000
   43        3.296357   1.000000
   44        3.316620   1.000000
   45        3.499372   1.000000
   46        3.632495   1.000000
   47        3.711779   1.000000
   48        4.065035   1.000000
   49        4.552064   1.000000
   50        4.967977   1.000000
   51        5.203159   1.000000
   52        5.381413   1.000000
   53        6.019158   1.000000
   54        6.208425   1.000000
   55        6.360725   1.000000
   56        6.544217   1.000000
   57        7.805937   0.000000
   58        8.274405   0.000000
   59        9.240056   0.000000
   60        9.720674   0.000000
   61       10.710938   0.000000
   62       11.172943   0.000000
   63       11.307203   0.000000
   64       11.585937   0.000000
   65       11.988078   0.000000
   66       12.168817   0.000000
   67       12.364341   0.000000
   68       12.580656   0.000000
 
  0.0000000E+00  0.0000000E+00  0.4473684E+00  0.7142857E-02
    1       -6.507967   1.000000
    2       -6.405878   1.000000
    3       -6.001022   1.000000
    4       -5.965942   1.000000
    5        0.435507   1.000000
    6        0.475980   1.000000
    7        0.711330   1.000000
    8        0.808228   1.000000
    9        0.839162   1.000000
   10        0.933616   1.000000
   11        1.031378   1.000000
   12        1.173300   1.000000
   13        1.363829   1.000000
   14        1.445426   1.000000
   15        1.546954   1.000000
   16        1.593528   1.000000
   17        1.646632   1.000000
   18        1.683115   1.000000
   19        1.747775   1.000000
   20        1.868420   1.000000
   21        1.893124   1.000000
   22        1.945126   1.000000
   23        1.989362   1.000000
   24        2.059100   1.000000
   25        2.115541   1.000000
   26        2.188340   1.000000
   27        2.262499   1.000000
   28        2.361551   1.000000
   29        2.432346   1.000000
   30        2.464669   1.000000
   31        2.536195   1.000000
   32        2.607076   1.000000
   33        2.633657   1.000000
   34        2.680395   1.000000
   35        2.724011   1.000000
   36        2.783456   1.000000
   37        2.875734   1.000000
   38        2.917793   1.000000
   39        3.007575   1.000000
   40        3.050418   1.000000
   41        3.121420   1.000000
   42        3.186581   1.000000
   43        3.297820   1.000000
   44        3.313560   1.000000
   45        3.527817   1.000000
   46        3.622750   1.000000
   47        3.747865   1.000000
   48        3.997461   1.000000
   49        4.616799   1.000000
   50        4.905437   1.000000
   51        5.216912   1.000000
   52        5.361357   1.000000
   53        6.037344   1.000000
   54        6.203619   1.000000
   55        6.379135   1.000000
   56        6.519915   1.000000
   57        7.876563   0.000000
   58        8.199278   0.000000
   59        9.323866   0.000000
   60        9.679539   0.000000
   61       10.777694   0.000000
   62       11.140165   0.000000
   63       11.274692   0.000000
   64       11.573163   0.000000
   65       11.997918   0.000000
   66       12.200834   0.000000
   67       12.327105   0.000000
   68       12.505618   0.000000
 
  0.0000000E+00  0.0000000E+00  0.4736842E+00  0.7142857E-02
    1       -6.496120   1.000000
    2       -6.418582   1.000000
    3       -5.999001   1.000000
    4       -5.967514   1.000000
    5        0.435139   1.000000
    6        0.472981   1.000000
    7        0.712685   1.000000
    8        0.819523   1.000000
    9        0.837196   1.000000
   10        0.924607   1.000000
   11        1.043264   1.000000
   12        1.165827   1.000000
   13        1.360873   1.000000
   14        1.445126   1.000000
   15        1.548568   1.000000
   16        1.595990   1.000000
   17        1.647876   1.000000
   18        1.685114   1.000000
   19        1.749462   1.000000
   20        1.872901   1.000000
   21        1.893533   1.000000
   22        1.943072   1.000000
   23        1.985584   1.000000
   24        2.050461   1.000000
   25        2.113845   1.000000
   26        2.193014   1.000000
   27        2.259128   1.000000
   28        2.368449   1.000000
   29        2.425036   1.000000
   30        2.464132   1.000000
   31        2.531318   1.000000
   32        2.612556   1.000000
   33        2.632950   1.000000
   34        2.676752   1.000000
   35        2.726865   1.000000
   36        2.783603   1.000000
   37        2.875452   1.000000
   38        2.919822   1.000000
   39        3.008419   1.000000
   40        3.052968   1.000000
   41        3.124994   1.000000
   42        3.176966   1.000000
   43        3.299077   1.000000
   44        3.311282   1.000000
   45        3.550336   1.000000
   46        3.611145   1.000000
   47        3.791793   1.000000
   48        3.934497   1.000000
   49        4.679957   1.000000
   50        4.843571   1.000000
   51        5.226295   1.000000
   52        5.348792   1.000000
   53        6.048477   1.000000
   54        6.200029   1.000000
   55        6.397232   1.000000
   56        6.498945   1.000000
   57        7.943519   0.000000
   58        8.129491   0.000000
   59        9.391332   0.000000
   60        9.637862   0.000000
   61       10.832971   0.000000
   62       11.103437   0.000000
   63       11.256755   0.000000
   64       11.564144   0.000000
   65       12.007008   0.000000
   66       12.219182   0.000000
   67       12.325741   0.000000
   68       12.438358   0.000000
 
  0.0000000E+00  0.0000000E+00  0.5000000E+00  0.7142857E-02
    1       -6.491149   1.000000
    2       -6.423839   1.000000
    3       -5.998267   1.000000
    4       -5.968097   1.000000
    5        0.435050   1.000000
    6        0.471938   1.000000
    7        0.713077   1.000000
    8        0.824572   1.000000
    9        0.835977   1.000000
   10        0.920770   1.000000
   11        1.048056   1.000000
   12        1.162713   1.000000
   13        1.359823   1.000000
   14        1.445023   1.000000
   15        1.549099   1.000000
   16        1.596833   1.000000
   17        1.648308   1.000000
   18        1.685789   1.000000
   19        1.750102   1.000000
   20        1.874429   1.000000
   21        1.893874   1.000000
   22        1.942137   1.000000
   23        1.984372   1.000000
   24        2.047400   1.000000
   25        2.113313   1.000000
   26        2.194751   1.000000
   27        2.257919   1.000000
   28        2.371604   1.000000
   29        2.421202   1.000000
   30        2.464470   1.000000
   31        2.529606   1.000000
   32        2.614366   1.000000
   33        2.633126   1.000000
   34        2.675140   1.000000
   35        2.727817   1.000000
   36        2.783681   1.000000
   37        2.875387   1.000000
   38        2.920533   1.000000
   39        3.008688   1.000000
   40        3.053873   1.000000
   41        3.126602   1.000000
   42        3.173249   1.000000
   43        3.299626   1.000000
   44        3.310383   1.000000
   45        3.560403   1.000000
   46        3.604683   1.000000
   47        3.822383   1.000000
   48        3.897529   1.000000
   49        4.718709   1.000000
   50        4.805229   1.000000
   51        5.229697   1.000000
   52        5.344436   1.000000
   53        6.052230   1.000000
   54        6.198693   1.000000
   55        6.405887   1.000000
   56        6.489456   1.000000
   57        7.982785   0.000000
   58        8.089261   0.000000
   59        9.421011   0.000000
   60        9.616806   0.000000
   61       10.857035   0.000000
   62       11.084878   0.000000
   63       11.251442   0.000000
   64       11.560863   0.000000
   65       12.010870   0.000000
   66       12.221123   0.000000
   67       12.347738   0.000000
   68       12.397114   0.000000
 
 -0.5000000E+00 -0.5000000E+00  0.5000000E+00  0.7142857E-02
    1       -6.164355   1.000000
    2       -6.044806   1.000000
    3       -6.034923   1.000000
    4       -5.993909   1.000000
    5        0.535964   1.000000
    6        0.582994   1.000000
    7        0.633570   1.000000
    8        0.685173   1.000000
    9        1.090967   1.000000
   10        1.117259   1.000000
   11        1.155708   1.000000
   12        1.204043   1.000000
   13        1.427518   1.000000
   14        1.473512   1.000000
   15        1.504737   1.000000
   16        1.579660   1.000000
   17        1.737289   1.000000
   18        1.793378   1.000000
   19        1.809042   1.000000
   20        1.870578   1.000000
   21        1.924928   1.000000
   22        1.988716   1.000000
   23        2.048005   1.000000
   24        2.121355   1.000000
   25        2.153448   1.000000
   26        2.194303   1.000000
   27        2.351817   1.000000
   28        2.410053   1.000000
   29        2.435825   1.000000
   30        2.445065   1.000000
   31        2.509852   1.000000
   32        2.533388   1.000000
   33        2.624749   1.000000
   34        2.686954   1.000000
   35        2.708802   1.000000
   36        2.718621   1.000000
   37        2.828961   1.000000
   38        2.850751   1.000000
   39        2.885882   1.000000
   40        2.911150   1.000000
   41        2.978669   1.000000
   42        3.046873   1.000000
   43        3.068306   1.000000
   44        3.128106   1.000000
   45        3.385718   1.000000
   46        3.443291   1.000000
   47        3.648537   1.000000
   48        3.690648   1.000000
   49        4.187500   1.000000
   50        4.318834   1.000000
   51        5.046698   1.000000
   52        5.294637   1.000000
   53        5.692727   1.000000
   54        5.796934   1.000000
   55        5.888561   1.000000
   56        6.080966   1.000000
   57        9.257874   0.000000
   58        9.370767   0.000000
   59        9.471137   0.000000
   60        9.541259   0.000000
   61       10.416827   0.000000
   62       10.640910   0.000000
   63       10.727435   0.000000
   64       10.983405   0.000000
   65       11.530494   0.000000
   66       11.672711   0.000000
   67       11.938650   0.000000
   68       12.059680   0.000000
 
 -0.4736842E+00 -0.4736842E+00  0.4736842E+00  0.7142857E-02
    1       -6.166999   1.000000
    2       -6.048960   1.000000
    3       -6.034569   1.000000
    4       -5.992192   1.000000
    5        0.512667   1.000000
    6        0.589383   1.000000
    7        0.643546   1.000000
    8        0.699047   1.000000
    9        1.084540   1.000000
   10        1.106866   1.000000
   11        1.167297   1.000000
   12        1.202523   1.000000
   13        1.425511   1.000000
   14        1.471665   1.000000
   15        1.503007   1.000000
   16        1.587543   1.000000
   17        1.737905   1.000000
   18        1.785906   1.000000
   19        1.814686   1.000000
   20        1.868977   1.000000
   21        1.925818   1.000000
   22        1.984606   1.000000
   23        2.041732   1.000000
   24        2.126562   1.000000
   25        2.150653   1.000000
   26        2.191833   1.000000
   27        2.350930   1.000000
   28        2.410468   1.000000
   29        2.436065   1.000000
   30        2.450761   1.000000
   31        2.511371   1.000000
   32        2.531926   1.000000
   33        2.622740   1.000000
   34        2.688530   1.000000
   35        2.710631   1.000000
   36        2.717362   1.000000
   37        2.826040   1.000000
   38        2.843118   1.000000
   39        2.870665   1.000000
   40        2.925692   1.000000
   41        2.987747   1.000000
   42        3.033537   1.000000
   43        3.080204   1.000000
   44        3.132876   1.000000
   45        3.385082   1.000000
   46        3.444792   1.000000
   47        3.660422   1.000000
   48        3.693033   1.000000
   49        4.176951   1.000000
   50        4.328597   1.000000
   51        5.069259   1.000000
   52        5.287987   1.000000
   53        5.619646   1.000000
   54        5.828898   1.000000
   55        5.921110   1.000000
   56        6.083895   1.000000
   57        9.247754   0.000000
   58        9.381502   0.000000
   59        9.444496   0.000000
   60        9.578856   0.000000
   61       10.361845   0.000000
   62       10.683054   0.000000
   63       10.742716   0.000000
   64       10.983073   0.000000
   65       11.409013   0.000000
   66       11.698485   0.000000
   67       11.963082   0.000000
   68       12.130297   0.000000
 
 -0.4473684E+00 -0.4473684E+00  0.4473684E+00  0.7142857E-02
    1       -6.175137   1.000000
    2       -6.059617   1.000000
    3       -6.033451   1.000000
    4       -5.988526   1.000000
    5        0.477334   1.000000
    6        0.582490   1.000000
    7        0.676026   1.000000
    8        0.727617   1.000000
    9        1.064500   1.000000
   10        1.093234   1.000000
   11        1.187436   1.000000
   12        1.198375   1.000000
   13        1.415978   1.000000
   14        1.467632   1.000000
   15        1.504253   1.000000
   16        1.605034   1.000000
   17        1.737596   1.000000
   18        1.773881   1.000000
   19        1.821485   1.000000
   20        1.864388   1.000000
   21        1.928872   1.000000
   22        1.974394   1.000000
   23        2.025178   1.000000
   24        2.131610   1.000000
   25        2.148518   1.000000
   26        2.189531   1.000000
   27        2.346123   1.000000
   28        2.412081   1.000000
   29        2.436110   1.000000
   30        2.465735   1.000000
   31        2.511081   1.000000
   32        2.531711   1.000000
   33        2.623175   1.000000
   34        2.679364   1.000000
   35        2.708340   1.000000
   36        2.732240   1.000000
   37        2.812897   1.000000
   38        2.829001   1.000000
   39        2.852821   1.000000
   40        2.945854   1.000000
   41        3.006381   1.000000
   42        3.016253   1.000000
   43        3.097517   1.000000
   44        3.144509   1.000000
   45        3.381236   1.000000
   46        3.449738   1.000000
   47        3.686242   1.000000
   48        3.707469   1.000000
   49        4.150851   1.000000
   50        4.357723   1.000000
   51        5.129896   1.000000
   52        5.257206   1.000000
   53        5.534378   1.000000
   54        5.815021   1.000000
   55        5.996105   1.000000
   56        6.103507   1.000000
   57        9.224625   0.000000
   58        9.379462   0.000000
   59        9.442475   0.000000
   60        9.640364   0.000000
   61       10.267001   0.000000
   62       10.683791   0.000000
   63       10.819325   0.000000
   64       10.974031   0.000000
   65       11.256991   0.000000
   66       11.668970   0.000000
   67       12.042677   0.000000
   68       12.263094   0.000000
 
 -0.4210526E+00 -0.4210526E+00  0.4210526E+00  0.7142857E-02
    1       -6.189362   1.000000
    2       -6.073200   1.000000
    3       -6.032196   1.000000
    4       -5.984774   1.000000
    5        0.447558   1.000000
    6        0.572882   1.000000
    7        0.709701   1.000000
    8        0.759048   1.000000
    9        1.034946   1.000000
   10        1.085611   1.000000
   11        1.186109   1.000000
   12        1.213974   1.000000
   13        1.400939   1.000000
   14        1.455139   1.000000
   15        1.518209   1.000000
   16        1.621932   1.000000
   17        1.732725   1.000000
   18        1.760806   1.000000
   19        1.825723   1.000000
   20        1.858707   1.000000
   21        1.932904   1.000000
   22        1.961689   1.000000
   23        2.003315   1.000000
   24        2.123621   1.000000
   25        2.150354   1.000000
   26        2.200740   1.000000
   27        2.336404   1.000000
   28        2.413609   1.000000
   29        2.435654   1.000000
   30        2.480260   1.000000
   31        2.504850   1.000000
   32        2.540257   1.000000
   33        2.630857   1.000000
   34        2.657786   1.000000
   35        2.710548   1.000000
   36        2.750178   1.000000
   37        2.796876   1.000000
   38        2.818529   1.000000
   39        2.845387   1.000000
   40        2.962236   1.000000
   41        2.999560   1.000000
   42        3.027180   1.000000
   43        3.112856   1.000000
   44        3.163103   1.000000
   45        3.376984   1.000000
   46        3.451387   1.000000
   47        3.708300   1.000000
   48        3.746433   1.000000
   49        4.121434   1.000000
   50        4.405128   1.000000
   51        5.175977   1.000000
   52        5.221333   1.000000
   53        5.501246   1.000000
   54        5.778492   1.000000
   55        6.019316   1.000000
   56        6.168873   1.000000
   57        9.190357   0.000000
   58        9.365532   0.000000
   59        9.482168   0.000000
   60        9.704462   0.000000
   61       10.172144   0.000000
   62       10.642530   0.000000
   63       10.782165   0.000000
   64       11.003089   0.000000
   65       11.242915   0.000000
   66       11.629478   0.000000
   67       12.095335   0.000000
   68       12.422021   0.000000
 
 -0.3947368E+00 -0.3947368E+00  0.3947368E+00  0.7142857E-02
    1       -6.210374   1.000000
    2       -6.086808   1.000000
    3       -6.031734   1.000000
    4       -5.981419   1.000000
    5        0.427593   1.000000
    6        0.566983   1.000000
    7        0.728463   1.000000
    8        0.793605   1.000000
    9        1.002368   1.000000
   10        1.080006   1.000000
   11        1.177055   1.000000
   12        1.237392   1.000000
   13        1.384822   1.000000
   14        1.439156   1.000000
   15        1.536942   1.000000
   16        1.629108   1.000000
   17        1.723940   1.000000
   18        1.744515   1.000000
   19        1.828191   1.000000
   20        1.854775   1.000000
   21        1.929037   1.000000
   22        1.954282   1.000000
   23        1.982525   1.000000
   24        2.114370   1.000000
   25        2.147771   1.000000
   26        2.226613   1.000000
   27        2.324881   1.000000
   28        2.410737   1.000000
   29        2.431611   1.000000
   30        2.485468   1.000000
   31        2.505083   1.000000
   32        2.551308   1.000000
   33        2.633836   1.000000
   34        2.643755   1.000000
   35        2.718992   1.000000
   36        2.753263   1.000000
   37        2.782369   1.000000
   38        2.836055   1.000000
   39        2.843626   1.000000
   40        2.972233   1.000000
   41        2.986637   1.000000
   42        3.041370   1.000000
   43        3.126450   1.000000
   44        3.187845   1.000000
   45        3.378277   1.000000
   46        3.444894   1.000000
   47        3.733540   1.000000
   48        3.792855   1.000000
   49        4.100983   1.000000
   50        4.468818   1.000000
   51        5.077321   1.000000
   52        5.310166   1.000000
   53        5.513111   1.000000
   54        5.736990   1.000000
   55        6.001891   1.000000
   56        6.249214   1.000000
   57        9.137296   0.000000
   58        9.380426   0.000000
   59        9.530438   0.000000
   60        9.765852   0.000000
   61       10.080305   0.000000
   62       10.513988   0.000000
   63       10.726420   0.000000
   64       11.052986   0.000000
   65       11.341264   0.000000
   66       11.619822   0.000000
   67       12.097422   0.000000
   68       12.598099   0.000000
 
 -0.3684211E+00 -0.3684211E+00  0.3684211E+00  0.7142857E-02
    1       -6.238312   1.000000
    2       -6.098766   1.000000
    3       -6.032804   1.000000
    4       -5.978182   1.000000
    5        0.418997   1.000000
    6        0.565737   1.000000
    7        0.727843   1.000000
    8        0.830175   1.000000
    9        0.970525   1.000000
   10        1.068793   1.000000
   11        1.173408   1.000000
   12        1.259723   1.000000
   13        1.368629   1.000000
   14        1.426481   1.000000
   15        1.552026   1.000000
   16        1.617712   1.000000
   17        1.713380   1.000000
   18        1.728353   1.000000
   19        1.829566   1.000000
   20        1.851047   1.000000
   21        1.916769   1.000000
   22        1.953368   1.000000
   23        1.969107   1.000000
   24        2.108864   1.000000
   25        2.148075   1.000000
   26        2.254535   1.000000
   27        2.313609   1.000000
   28        2.403214   1.000000
   29        2.423302   1.000000
   30        2.487345   1.000000
   31        2.511892   1.000000
   32        2.553726   1.000000
   33        2.622917   1.000000
   34        2.654075   1.000000
   35        2.729101   1.000000
   36        2.753594   1.000000
   37        2.775416   1.000000
   38        2.838964   1.000000
   39        2.874924   1.000000
   40        2.973276   1.000000
   41        2.977884   1.000000
   42        3.050615   1.000000
   43        3.143274   1.000000
   44        3.210789   1.000000
   45        3.387561   1.000000
   46        3.438931   1.000000
   47        3.757247   1.000000
   48        3.834466   1.000000
   49        4.100286   1.000000
   50        4.546645   1.000000
   51        4.974501   1.000000
   52        5.397325   1.000000
   53        5.531897   1.000000
   54        5.714704   1.000000
   55        5.964262   1.000000
   56        6.318896   1.000000
   57        9.059590   0.000000
   58        9.431154   0.000000
   59        9.578454   0.000000
   60        9.806308   0.000000
   61       10.005277   0.000000
   62       10.357490   0.000000
   63       10.720156   0.000000
   64       11.099856   0.000000
   65       11.409444   0.000000
   66       11.700714   0.000000
   67       12.071903   0.000000
   68       12.750315   0.000000
 
 -0.3421053E+00 -0.3421053E+00  0.3421053E+00  0.7142857E-02
    1       -6.272389   1.000000
    2       -6.108663   1.000000
    3       -6.035638   1.000000
    4       -5.974749   1.000000
    5        0.421801   1.000000
    6        0.568793   1.000000
    7        0.713957   1.000000
    8        0.858860   1.000000
    9        0.944225   1.000000
   10        1.049050   1.000000
   11        1.175136   1.000000
   12        1.279664   1.000000
   13        1.353598   1.000000
   14        1.418976   1.000000
   15        1.557926   1.000000
   16        1.587006   1.000000
   17        1.698496   1.000000
   18        1.720450   1.000000
   19        1.825655   1.000000
   20        1.845342   1.000000
   21        1.913170   1.000000
   22        1.941881   1.000000
   23        1.973028   1.000000
   24        2.109325   1.000000
   25        2.153787   1.000000
   26        2.264257   1.000000
   27        2.308646   1.000000
   28        2.390732   1.000000
   29        2.422558   1.000000
   30        2.488636   1.000000
   31        2.523935   1.000000
   32        2.548085   1.000000
   33        2.621680   1.000000
   34        2.662860   1.000000
   35        2.734757   1.000000
   36        2.763327   1.000000
   37        2.777836   1.000000
   38        2.837770   1.000000
   39        2.905147   1.000000
   40        2.963224   1.000000
   41        2.983918   1.000000
   42        3.058412   1.000000
   43        3.161889   1.000000
   44        3.224497   1.000000
   45        3.403414   1.000000
   46        3.450181   1.000000
   47        3.769638   1.000000
   48        3.865364   1.000000
   49        4.127081   1.000000
   50        4.636665   1.000000
   51        4.887064   1.000000
   52        5.458270   1.000000
   53        5.527059   1.000000
   54        5.742089   1.000000
   55        5.915440   1.000000
   56        6.373721   1.000000
   57        8.952924   0.000000
   58        9.510518   0.000000
   59        9.606607   0.000000
   60        9.788815   0.000000
   61       10.009510   0.000000
   62       10.230803   0.000000
   63       10.735184   0.000000
   64       11.156057   0.000000
   65       11.408806   0.000000
   66       11.866608   0.000000
   67       12.048870   0.000000
   68       12.772306   0.000000
 
 -0.3157895E+00 -0.3157895E+00  0.3157895E+00  0.7142857E-02
    1       -6.311219   1.000000
    2       -6.116918   1.000000
    3       -6.039842   1.000000
    4       -5.971099   1.000000
    5        0.434678   1.000000
    6        0.575015   1.000000
    7        0.694054   1.000000
    8        0.862882   1.000000
    9        0.933452   1.000000
   10        1.026491   1.000000
   11        1.176295   1.000000
   12        1.296903   1.000000
   13        1.342216   1.000000
   14        1.413775   1.000000
   15        1.538671   1.000000
   16        1.558315   1.000000
   17        1.687039   1.000000
   18        1.715745   1.000000
   19        1.806321   1.000000
   20        1.845615   1.000000
   21        1.917655   1.000000
   22        1.927231   1.000000
   23        1.989541   1.000000
   24        2.116970   1.000000
   25        2.162152   1.000000
   26        2.244069   1.000000
   27        2.314403   1.000000
   28        2.367989   1.000000
   29        2.442822   1.000000
   30        2.490905   1.000000
   31        2.536062   1.000000
   32        2.548946   1.000000
   33        2.620809   1.000000
   34        2.669916   1.000000
   35        2.742052   1.000000
   36        2.767225   1.000000
   37        2.789917   1.000000
   38        2.842628   1.000000
   39        2.910996   1.000000
   40        2.961634   1.000000
   41        2.995360   1.000000
   42        3.069386   1.000000
   43        3.177590   1.000000
   44        3.227491   1.000000
   45        3.426089   1.000000
   46        3.486778   1.000000
   47        3.765298   1.000000
   48        3.887543   1.000000
   49        4.180174   1.000000
   50        4.734377   1.000000
   51        4.827862   1.000000
   52        5.429662   1.000000
   53        5.565044   1.000000
   54        5.763929   1.000000
   55        5.900585   1.000000
   56        6.414706   1.000000
   57        8.814277   0.000000
   58        9.516550   0.000000
   59        9.649321   0.000000
   60        9.803503   0.000000
   61       10.070262   0.000000
   62       10.139703   0.000000
   63       10.773421   0.000000
   64       11.224231   0.000000
   65       11.390380   0.000000
   66       11.983289   0.000000
   67       12.105311   0.000000
   68       12.787241   0.000000
 
 -0.2894737E+00 -0.2894737E+00  0.2894737E+00  0.7142857E-02
    1       -6.353220   1.000000
    2       -6.124253   1.000000
    3       -6.044585   1.000000
    4       -5.967426   1.000000
    5        0.454842   1.000000
    6        0.581611   1.000000
    7        0.675615   1.000000
    8        0.842319   1.000000
    9        0.929389   1.000000
   10        1.011079   1.000000
   11        1.172969   1.000000
   12        1.310985   1.000000
   13        1.337381   1.000000
   14        1.403129   1.000000
   15        1.495306   1.000000
   16        1.545093   1.000000
   17        1.680864   1.000000
   18        1.712353   1.000000
   19        1.780288   1.000000
   20        1.844458   1.000000
   21        1.908653   1.000000
   22        1.930308   1.000000
   23        2.013423   1.000000
   24        2.131390   1.000000
   25        2.167350   1.000000
   26        2.216780   1.000000
   27        2.317061   1.000000
   28        2.344962   1.000000
   29        2.465504   1.000000
   30        2.501618   1.000000
   31        2.542444   1.000000
   32        2.562482   1.000000
   33        2.620617   1.000000
   34        2.672062   1.000000
   35        2.751283   1.000000
   36        2.768904   1.000000
   37        2.797879   1.000000
   38        2.859360   1.000000
   39        2.904935   1.000000
   40        2.963838   1.000000
   41        3.002683   1.000000
   42        3.083992   1.000000
   43        3.185400   1.000000
   44        3.228465   1.000000
   45        3.454696   1.000000
   46        3.542643   1.000000
   47        3.746049   1.000000
   48        3.907802   1.000000
   49        4.250961   1.000000
   50        4.780025   1.000000
   51        4.860736   1.000000
   52        5.365830   1.000000
   53        5.600500   1.000000
   54        5.716864   1.000000
   55        5.973821   1.000000
   56        6.444555   1.000000
   57        8.644733   0.000000
   58        9.414859   0.000000
   59        9.732468   0.000000
   60        9.878177   0.000000
   61       10.059131   0.000000
   62       10.183434   0.000000
   63       10.841969   0.000000
   64       11.298605   0.000000
   65       11.377678   0.000000
   66       11.990241   0.000000
   67       12.262891   0.000000
   68       12.826036   0.000000
 
 -0.2631579E+00 -0.2631579E+00  0.2631579E+00  0.7142857E-02
    1       -6.396869   1.000000
    2       -6.131393   1.000000
    3       -6.048895   1.000000
    4       -5.963971   1.000000
    5        0.477965   1.000000
    6        0.582389   1.000000
    7        0.668034   1.000000
    8        0.815748   1.000000
    9        0.912267   1.000000
   10        1.006300   1.000000
   11        1.165069   1.000000
   12        1.316090   1.000000
   13        1.344742   1.000000
   14        1.378022   1.000000
   15        1.457291   1.000000
   16        1.538380   1.000000
   17        1.672191   1.000000
   18        1.709608   1.000000
   19        1.758671   1.000000
   20        1.835141   1.000000
   21        1.900099   1.000000
   22        1.937772   1.000000
   23        2.036748   1.000000
   24        2.143789   1.000000
   25        2.162818   1.000000
   26        2.205777   1.000000
   27        2.313551   1.000000
   28        2.330822   1.000000
   29        2.476650   1.000000
   30        2.518434   1.000000
   31        2.556779   1.000000
   32        2.573011   1.000000
   33        2.625777   1.000000
   34        2.666374   1.000000
   35        2.759937   1.000000
   36        2.773035   1.000000
   37        2.804270   1.000000
   38        2.880979   1.000000
   39        2.905823   1.000000
   40        2.964565   1.000000
   41        3.003357   1.000000
   42        3.096556   1.000000
   43        3.182361   1.000000
   44        3.234885   1.000000
   45        3.482967   1.000000
   46        3.605570   1.000000
   47        3.718403   1.000000
   48        3.934383   1.000000
   49        4.331098   1.000000
   50        4.790914   1.000000
   51        4.961605   1.000000
   52        5.304275   1.000000
   53        5.557117   1.000000
   54        5.712867   1.000000
   55        6.074492   1.000000
   56        6.466418   1.000000
   57        8.449837   0.000000
   58        9.310781   0.000000
   59        9.703678   0.000000
   60        9.962429   0.000000
   61       10.135285   0.000000
   62       10.283892   0.000000
   63       10.941095   0.000000
   64       11.341976   0.000000
   65       11.411357   0.000000
   66       11.983758   0.000000
   67       12.393214   0.000000
   68       12.886475   0.000000
 
 -0.2368421E+00 -0.2368421E+00  0.2368421E+00  0.7142857E-02
    1       -6.440765   1.000000
    2       -6.138869   1.000000
    3       -6.051967   1.000000
    4       -5.960933   1.000000
    5        0.498662   1.000000
    6        0.573578   1.000000
    7        0.674741   1.000000
    8        0.793856   1.000000
    9        0.887805   1.000000
   10        1.001904   1.000000
   11        1.153974   1.000000
   12        1.307382   1.000000
   13        1.340529   1.000000
   14        1.368127   1.000000
   15        1.425886   1.000000
   16        1.543353   1.000000
   17        1.654851   1.000000
   18        1.702735   1.000000
   19        1.751517   1.000000
   20        1.817911   1.000000
   21        1.899901   1.000000
   22        1.940452   1.000000
   23        2.054093   1.000000
   24        2.129080   1.000000
   25        2.168446   1.000000
   26        2.215002   1.000000
   27        2.310957   1.000000
   28        2.327239   1.000000
   29        2.482519   1.000000
   30        2.522984   1.000000
   31        2.572153   1.000000
   32        2.584756   1.000000
   33        2.634615   1.000000
   34        2.658970   1.000000
   35        2.764528   1.000000
   36        2.782399   1.000000
   37        2.815880   1.000000
   38        2.895595   1.000000
   39        2.924675   1.000000
   40        2.961406   1.000000
   41        3.003523   1.000000
   42        3.104716   1.000000
   43        3.173863   1.000000
   44        3.241416   1.000000
   45        3.504438   1.000000
   46        3.647072   1.000000
   47        3.700878   1.000000
   48        3.979006   1.000000
   49        4.415983   1.000000
   50        4.834059   1.000000
   51        5.024808   1.000000
   52        5.258080   1.000000
   53        5.499354   1.000000
   54        5.741157   1.000000
   55        6.178654   1.000000
   56        6.483227   1.000000
   57        8.237154   0.000000
   58        9.215777   0.000000
   59        9.585243   0.000000
   60       10.025991   0.000000
   61       10.322271   0.000000
   62       10.391857   0.000000
   63       11.057379   0.000000
   64       11.345854   0.000000
   65       11.505225   0.000000
   66       11.962186   0.000000
   67       12.481662   0.000000
   68       12.931299   0.000000
 
 -0.2105263E+00 -0.2105263E+00  0.2105263E+00  0.7142857E-02
    1       -6.483625   1.000000
    2       -6.146886   1.000000
    3       -6.053381   1.000000
    4       -5.958433   1.000000
    5        0.511744   1.000000
    6        0.562098   1.000000
    7        0.680459   1.000000
    8        0.787319   1.000000
    9        0.866320   1.000000
   10        0.991074   1.000000
   11        1.140458   1.000000
   12        1.277482   1.000000
   13        1.326590   1.000000
   14        1.373085   1.000000
   15        1.413099   1.000000
   16        1.556149   1.000000
   17        1.629886   1.000000
   18        1.695254   1.000000
   19        1.753968   1.000000
   20        1.798528   1.000000
   21        1.904917   1.000000
   22        1.938811   1.000000
   23        2.066075   1.000000
   24        2.112237   1.000000
   25        2.169217   1.000000
   26        2.228472   1.000000
   27        2.312084   1.000000
   28        2.336545   1.000000
   29        2.481106   1.000000
   30        2.517771   1.000000
   31        2.571646   1.000000
   32        2.606026   1.000000
   33        2.631306   1.000000
   34        2.668281   1.000000
   35        2.765345   1.000000
   36        2.795056   1.000000
   37        2.836533   1.000000
   38        2.908044   1.000000
   39        2.950756   1.000000
   40        2.956944   1.000000
   41        3.006872   1.000000
   42        3.110003   1.000000
   43        3.164616   1.000000
   44        3.243048   1.000000
   45        3.515719   1.000000
   46        3.628313   1.000000
   47        3.722049   1.000000
   48        4.052745   1.000000
   49        4.505069   1.000000
   50        4.893879   1.000000
   51        5.001626   1.000000
   52        5.219807   1.000000
   53        5.540827   1.000000
   54        5.765914   1.000000
   55        6.279181   1.000000
   56        6.497447   1.000000
   57        8.014023   0.000000
   58        9.119607   0.000000
   59        9.446688   0.000000
   60       10.071333   0.000000
   61       10.488888   0.000000
   62       10.545562   0.000000
   63       11.163122   0.000000
   64       11.341044   0.000000
   65       11.638661   0.000000
   66       11.927489   0.000000
   67       12.522530   0.000000
   68       12.935052   0.000000
 
 -0.1842105E+00 -0.1842105E+00  0.1842105E+00  0.7142857E-02
    1       -6.524284   1.000000
    2       -6.155293   1.000000
    3       -6.053134   1.000000
    4       -5.956508   1.000000
    5        0.514066   1.000000
    6        0.555655   1.000000
    7        0.670440   1.000000
    8        0.793147   1.000000
    9        0.861801   1.000000
   10        0.973748   1.000000
   11        1.125284   1.000000
   12        1.244011   1.000000
   13        1.315770   1.000000
   14        1.350454   1.000000
   15        1.433496   1.000000
   16        1.572681   1.000000
   17        1.604409   1.000000
   18        1.688412   1.000000
   19        1.753777   1.000000
   20        1.786210   1.000000
   21        1.911366   1.000000
   22        1.939070   1.000000
   23        2.075323   1.000000
   24        2.101636   1.000000
   25        2.164364   1.000000
   26        2.239151   1.000000
   27        2.307914   1.000000
   28        2.360273   1.000000
   29        2.468800   1.000000
   30        2.507989   1.000000
   31        2.569758   1.000000
   32        2.615597   1.000000
   33        2.625796   1.000000
   34        2.686814   1.000000
   35        2.765486   1.000000
   36        2.812216   1.000000
   37        2.860888   1.000000
   38        2.920684   1.000000
   39        2.948142   1.000000
   40        2.983631   1.000000
   41        3.014040   1.000000
   42        3.113929   1.000000
   43        3.157111   1.000000
   44        3.239871   1.000000
   45        3.517360   1.000000
   46        3.595522   1.000000
   47        3.736762   1.000000
   48        4.154195   1.000000
   49        4.597606   1.000000
   50        4.885066   1.000000
   51        4.945461   1.000000
   52        5.233592   1.000000
   53        5.670199   1.000000
   54        5.786230   1.000000
   55        6.371888   1.000000
   56        6.511300   1.000000
   57        7.786841   0.000000
   58        8.999341   0.000000
   59        9.329088   0.000000
   60       10.087469   0.000000
   61       10.568977   0.000000
   62       10.757273   0.000000
   63       11.244153   0.000000
   64       11.310092   0.000000
   65       11.815660   0.000000
   66       11.921929   0.000000
   67       12.500895   0.000000
   68       12.898106   0.000000
 
 -0.1578947E+00 -0.1578947E+00  0.1578947E+00  0.7142857E-02
    1       -6.561693   1.000000
    2       -6.163710   1.000000
    3       -6.051545   1.000000
    4       -5.955134   1.000000
    5        0.508850   1.000000
    6        0.554231   1.000000
    7        0.650687   1.000000
    8        0.786731   1.000000
    9        0.884459   1.000000
   10        0.955416   1.000000
   11        1.110780   1.000000
   12        1.216812   1.000000
   13        1.296548   1.000000
   14        1.328556   1.000000
   15        1.457741   1.000000
   16        1.582271   1.000000
   17        1.593090   1.000000
   18        1.679329   1.000000
   19        1.741119   1.000000
   20        1.791421   1.000000
   21        1.920246   1.000000
   22        1.945351   1.000000
   23        2.080711   1.000000
   24        2.099489   1.000000
   25        2.158021   1.000000
   26        2.247354   1.000000
   27        2.299437   1.000000
   28        2.384839   1.000000
   29        2.451801   1.000000
   30        2.497151   1.000000
   31        2.562676   1.000000
   32        2.612775   1.000000
   33        2.623457   1.000000
   34        2.707305   1.000000
   35        2.766668   1.000000
   36        2.836777   1.000000
   37        2.873860   1.000000
   38        2.932021   1.000000
   39        2.950456   1.000000
   40        3.008026   1.000000
   41        3.029505   1.000000
   42        3.116624   1.000000
   43        3.152504   1.000000
   44        3.237026   1.000000
   45        3.511522   1.000000
   46        3.566470   1.000000
   47        3.737742   1.000000
   48        4.270712   1.000000
   49        4.663822   1.000000
   50        4.780273   1.000000
   51        4.930360   1.000000
   52        5.333520   1.000000
   53        5.772604   1.000000
   54        5.861430   1.000000
   55        6.452338   1.000000
   56        6.528267   1.000000
   57        7.561318   0.000000
   58        8.840481   0.000000
   59        9.253293   0.000000
   60       10.066093   0.000000
   61       10.589553   0.000000
   62       10.929783   0.000000
   63       11.267894   0.000000
   64       11.329566   0.000000
   65       11.902416   0.000000
   66       12.080971   0.000000
   67       12.483519   0.000000
   68       12.916279   0.000000
 
 -0.1315789E+00 -0.1315789E+00  0.1315789E+00  0.7142857E-02
    1       -6.594933   1.000000
    2       -6.171680   1.000000
    3       -6.049093   1.000000
    4       -5.954239   1.000000
    5        0.501948   1.000000
    6        0.554429   1.000000
    7        0.628942   1.000000
    8        0.772340   1.000000
    9        0.896471   1.000000
   10        0.959484   1.000000
   11        1.099795   1.000000
   12        1.194579   1.000000
   13        1.275415   1.000000
   14        1.307892   1.000000
   15        1.478227   1.000000
   16        1.566308   1.000000
   17        1.614200   1.000000
   18        1.667798   1.000000
   19        1.722896   1.000000
   20        1.807098   1.000000
   21        1.935894   1.000000
   22        1.955518   1.000000
   23        2.079082   1.000000
   24        2.110137   1.000000
   25        2.152041   1.000000
   26        2.250563   1.000000
   27        2.288569   1.000000
   28        2.403026   1.000000
   29        2.439965   1.000000
   30        2.487733   1.000000
   31        2.545961   1.000000
   32        2.605553   1.000000
   33        2.618602   1.000000
   34        2.727368   1.000000
   35        2.770248   1.000000
   36        2.860927   1.000000
   37        2.873366   1.000000
   38        2.939783   1.000000
   39        2.961702   1.000000
   40        3.022173   1.000000
   41        3.057566   1.000000
   42        3.117531   1.000000
   43        3.147995   1.000000
   44        3.244738   1.000000
   45        3.497780   1.000000
   46        3.547269   1.000000
   47        3.730714   1.000000
   48        4.379466   1.000000
   49        4.569116   1.000000
   50        4.818741   1.000000
   51        4.920491   1.000000
   52        5.474841   1.000000
   53        5.788838   1.000000
   54        6.026998   1.000000
   55        6.509690   1.000000
   56        6.559261   1.000000
   57        7.343093   0.000000
   58        8.655850   0.000000
   59        9.211630   0.000000
   60       10.004926   0.000000
   61       10.520780   0.000000
   62       11.030505   0.000000
   63       11.280998   0.000000
   64       11.441531   0.000000
   65       11.960470   0.000000
   66       12.222539   0.000000
   67       12.607072   0.000000
   68       12.935667   0.000000
 
 -0.1052632E+00 -0.1052632E+00  0.1052632E+00  0.7142857E-02
    1       -6.623213   1.000000
    2       -6.178772   1.000000
    3       -6.046279   1.000000
    4       -5.953724   1.000000
    5        0.495486   1.000000
    6        0.555825   1.000000
    7        0.608529   1.000000
    8        0.757982   1.000000
    9        0.877847   1.000000
   10        0.992723   1.000000
   11        1.093181   1.000000
   12        1.175458   1.000000
   13        1.261429   1.000000
   14        1.285611   1.000000
   15        1.493449   1.000000
   16        1.553778   1.000000
   17        1.633076   1.000000
   18        1.658445   1.000000
   19        1.705220   1.000000
   20        1.822777   1.000000
   21        1.951561   1.000000
   22        1.976155   1.000000
   23        2.075881   1.000000
   24        2.128869   1.000000
   25        2.147564   1.000000
   26        2.242805   1.000000
   27        2.283325   1.000000
   28        2.413293   1.000000
   29        2.437318   1.000000
   30        2.479567   1.000000
   31        2.521321   1.000000
   32        2.592304   1.000000
   33        2.615697   1.000000
   34        2.740084   1.000000
   35        2.776695   1.000000
   36        2.860387   1.000000
   37        2.885480   1.000000
   38        2.946831   1.000000
   39        2.972595   1.000000
   40        3.033324   1.000000
   41        3.090652   1.000000
   42        3.117427   1.000000
   43        3.141570   1.000000
   44        3.268324   1.000000
   45        3.475322   1.000000
   46        3.539784   1.000000
   47        3.721892   1.000000
   48        4.354795   1.000000
   49        4.551424   1.000000
   50        4.840515   1.000000
   51        4.982832   1.000000
   52        5.615052   1.000000
   53        5.811786   1.000000
   54        6.185456   1.000000
   55        6.542124   1.000000
   56        6.608157   1.000000
   57        7.138616   0.000000
   58        8.465069   0.000000
   59        9.192369   0.000000
   60        9.908182   0.000000
   61       10.388815   0.000000
   62       11.084662   0.000000
   63       11.336868   0.000000
   64       11.569077   0.000000
   65       12.021495   0.000000
   66       12.260535   0.000000
   67       12.898986   0.000000
   68       12.987963   0.000000
 
 -0.7894737E-01 -0.7894737E-01  0.7894737E-01  0.7142857E-02
    1       -6.645900   1.000000
    2       -6.184634   1.000000
    3       -6.043562   1.000000
    4       -5.953479   1.000000
    5        0.489746   1.000000
    6        0.558513   1.000000
    7        0.591339   1.000000
    8        0.747528   1.000000
    9        0.852083   1.000000
   10        1.025525   1.000000
   11        1.089254   1.000000
   12        1.161319   1.000000
   13        1.251212   1.000000
   14        1.268935   1.000000
   15        1.501594   1.000000
   16        1.546018   1.000000
   17        1.634675   1.000000
   18        1.663568   1.000000
   19        1.694344   1.000000
   20        1.828428   1.000000
   21        1.958278   1.000000
   22        2.014596   1.000000
   23        2.073441   1.000000
   24        2.132974   1.000000
   25        2.164368   1.000000
   26        2.231396   1.000000
   27        2.284251   1.000000
   28        2.413882   1.000000
   29        2.438746   1.000000
   30        2.470530   1.000000
   31        2.497991   1.000000
   32        2.576351   1.000000
   33        2.614319   1.000000
   34        2.735200   1.000000
   35        2.788491   1.000000
   36        2.856740   1.000000
   37        2.892300   1.000000
   38        2.955810   1.000000
   39        2.980840   1.000000
   40        3.041902   1.000000
   41        3.104618   1.000000
   42        3.134174   1.000000
   43        3.143449   1.000000
   44        3.300800   1.000000
   45        3.447706   1.000000
   46        3.537694   1.000000
   47        3.719263   1.000000
   48        4.213615   1.000000
   49        4.631572   1.000000
   50        4.839467   1.000000
   51        5.084057   1.000000
   52        5.696533   1.000000
   53        5.891487   1.000000
   54        6.308956   1.000000
   55        6.575220   1.000000
   56        6.653371   1.000000
   57        6.957284  -0.000000
   58        8.284870   0.000000
   59        9.191838   0.000000
   60        9.785145   0.000000
   61       10.249792   0.000000
   62       11.121805   0.000000
   63       11.400231   0.000000
   64       11.680589   0.000000
   65       12.056809   0.000000
   66       12.301984   0.000000
   67       13.056210   0.000000
   68       13.226266   0.000000
 
 -0.5263158E-01 -0.5263158E-01  0.5263158E-01  0.7142857E-02
    1       -6.662476   1.000000
    2       -6.188999   1.000000
    3       -6.041330   1.000000
    4       -5.953393   1.000000
    5        0.485042   1.000000
    6        0.560525   1.000000
    7        0.579645   1.000000
    8        0.744314   1.000000
    9        0.825033   1.000000
   10        1.049621   1.000000
   11        1.086038   1.000000
   12        1.154736   1.000000
   13        1.232336   1.000000
   14        1.270078   1.000000
   15        1.501133   1.000000
   16        1.545154   1.000000
   17        1.627053   1.000000
   18        1.663476   1.000000
   19        1.704876   1.000000
   20        1.819958   1.000000
   21        1.964834   1.000000
   22        2.046753   1.000000
   23        2.075870   1.000000
   24        2.128962   1.000000
   25        2.195953   1.000000
   26        2.232865   1.000000
   27        2.284778   1.000000
   28        2.397993   1.000000
   29        2.426597   1.000000
   30        2.466475   1.000000
   31        2.492362   1.000000
   32        2.562968   1.000000
   33        2.611911   1.000000
   34        2.717478   1.000000
   35        2.801628   1.000000
   36        2.854982   1.000000
   37        2.893297   1.000000
   38        2.964850   1.000000
   39        2.987355   1.000000
   40        3.046961   1.000000
   41        3.099124   1.000000
   42        3.135325   1.000000
   43        3.187721   1.000000
   44        3.332498   1.000000
   45        3.417596   1.000000
   46        3.534116   1.000000
   47        3.732795   1.000000
   48        4.075806   1.000000
   49        4.682608   1.000000
   50        4.858057   1.000000
   51        5.177693   1.000000
   52        5.716655   1.000000
   53        6.018789   1.000000
   54        6.381037   1.000000
   55        6.604328   1.000000
   56        6.689609   1.000000
   57        6.819434  -0.000000
   58        8.132537   0.000000
   59        9.211713   0.000000
   60        9.650696   0.000000
   61       10.139410   0.000000
   62       11.147717   0.000000
   63       11.454682   0.000000
   64       11.762162   0.000000
   65       12.065271   0.000000
   66       12.359669   0.000000
   67       13.133953   0.000000
   68       13.340339   0.000000
 
 -0.2631579E-01 -0.2631579E-01  0.2631579E-01  0.7142857E-02
    1       -6.672561   1.000000
    2       -6.191686   1.000000
    3       -6.039871   1.000000
    4       -5.953377   1.000000
    5        0.481919   1.000000
    6        0.559036   1.000000
    7        0.575600   1.000000
    8        0.749765   1.000000
    9        0.799646   1.000000
   10        1.063155   1.000000
   11        1.084570   1.000000
   12        1.154127   1.000000
   13        1.215294   1.000000
   14        1.276408   1.000000
   15        1.496735   1.000000
   16        1.547906   1.000000
   17        1.621128   1.000000
   18        1.657356   1.000000
   19        1.727305   1.000000
   20        1.801917   1.000000
   21        1.972598   1.000000
   22        2.049524   1.000000
   23        2.083280   1.000000
   24        2.136023   1.000000
   25        2.227092   1.000000
   26        2.255267   1.000000
   27        2.281333   1.000000
   28        2.359854   1.000000
   29        2.411740   1.000000
   30        2.467212   1.000000
   31        2.498630   1.000000
   32        2.557473   1.000000
   33        2.606740   1.000000
   34        2.700125   1.000000
   35        2.810971   1.000000
   36        2.852427   1.000000
   37        2.893954   1.000000
   38        2.971761   1.000000
   39        2.991778   1.000000
   40        3.049025   1.000000
   41        3.094363   1.000000
   42        3.135475   1.000000
   43        3.232065   1.000000
   44        3.355132   1.000000
   45        3.388768   1.000000
   46        3.527798   1.000000
   47        3.768541   1.000000
   48        3.959652   1.000000
   49        4.699590   1.000000
   50        4.887791   1.000000
   51        5.244351   1.000000
   52        5.720296   1.000000
   53        6.130751   1.000000
   54        6.411629   1.000000
   55        6.578864   1.000000
   56        6.723264   1.002838
   57        6.761450  -0.026244
   58        8.028004   0.000000
   59        9.251496   0.000000
   60        9.528496   0.000000
   61       10.071409   0.000000
   62       11.163172   0.000000
   63       11.490993   0.000000
   64       11.810246   0.000000
   65       12.065565   0.000000
   66       12.407649   0.000000
   67       13.189209   0.000000
   68       13.323145   0.000000
 
  0.0000000E+00  0.0000000E+00  0.0000000E+00  0.7142857E-02
    1       -6.675938   1.000000
    2       -6.192594   1.000000
    3       -6.039365   1.000000
    4       -5.953377   1.000000
    5        0.480823   1.000000
    6        0.557495   1.000000
    7        0.575313   1.000000
    8        0.756945   1.000000
    9        0.785527   1.000000
   10        1.066734   1.000000
   11        1.085041   1.000000
   12        1.154915   1.000000
   13        1.208288   1.000000
   14        1.279414   1.000000
   15        1.494546   1.000000
   16        1.549385   1.000000
   17        1.618960   1.000000
   18        1.654800   1.000000
   19        1.741191   1.000000
   20        1.789319   1.000000
   21        1.976536   1.000000
   22        2.046762   1.000000
   23        2.084216   1.000000
   24        2.141112   1.000000
   25        2.247120   1.000000
   26        2.270126   1.000000
   27        2.284890   1.000000
   28        2.327705   1.000000
   29        2.405547   1.000000
   30        2.467907   1.000000
   31        2.501523   1.000000
   32        2.558252   1.000000
   33        2.602778   1.000000
   34        2.693180   1.000000
   35        2.814277   1.000000
   36        2.851082   1.000000
   37        2.894354   1.000000
   38        2.974474   1.000000
   39        2.993353   1.000000
   40        3.049457   1.000000
   41        3.092643   1.000000
   42        3.135575   1.000000
   43        3.253583   1.000000
   44        3.360539   1.000000
   45        3.376564   1.000000
   46        3.524323   1.000000
   47        3.804270   1.000000
   48        3.896345   1.000000
   49        4.702612   1.000000
   50        4.901249   1.000000
   51        5.268768   1.000000
   52        5.720781   1.000000
   53        6.178983   1.000000
   54        6.419810   1.000000
   55        6.547195   1.000000
   56        6.738367   0.983958
   57        6.754814  -0.005378
   58        7.990342   0.000000
   59        9.282177   0.000000
   60        9.467725   0.000000
   61       10.048692   0.000000
   62       11.168323   0.000000
   63       11.503710   0.000000
   64       11.825792   0.000000
   65       12.065479   0.000000
   66       12.426215   0.000000
   67       13.208637   0.000000
   68       13.311915   0.000000
 
  0.0000000E+00  0.0000000E+00  0.0000000E+00  0.7142857E-02
    1       -6.675938   1.000000
    2       -6.192594   1.000000
    3       -6.039365   1.000000
    4       -5.953377   1.000000
    5        0.480823   1.000000
    6        0.557495   1.000000
    7        0.575313   1.000000
    8        0.756945   1.000000
    9        0.785527   1.000000
   10        1.066734   1.000000
   11        1.085041   1.000000
   12        1.154915   1.000000
   13        1.208288   1.000000
   14        1.279414   1.000000
   15        1.494546   1.000000
   16        1.549385   1.000000
   17        1.618960   1.000000
   18        1.654800   1.000000
   19        1.741191   1.000000
   20        1.789319   1.000000
   21        1.976536   1.000000
   22        2.046762   1.000000
   23        2.084216   1.000000
   24        2.141112   1.000000
   25        2.247120   1.000000
   26        2.270126   1.000000
   27        2.284890   1.000000
   28        2.327705   1.000000
   29        2.405547   1.000000
   30        2.467907   1.000000
   31        2.501523   1.000000
   32        2.558252   1.000000
   33        2.602778   1.000000
   34        2.693180   1.000000
   35        2.814277   1.000000
   36        2.851082   1.000000
   37        2.894354   1.000000
   38        2.974474   1.000000
   39        2.993353   1.000000
   40        3.049457   1.000000
   41        3.092643   1.000000
   42        3.135575   1.000000
   43        3.253583   1.000000
   44        3.360539   1.000000
   45        3.376564   1.000000
   46        3.524323   1.000000
   47        3.804270   1.000000
   48        3.896345   1.000000
   49        4.702612   1.000000
   50        4.901249   1.000000
   51        5.268768   1.000000
   52        5.720781   1.000000
   53        6.178983   1.000000
   54        6.419810   1.000000
   55        6.547195   1.000000
   56        6.738367   0.983957
   57        6.754814  -0.005378
   58        7.990342   0.000000
   59        9.282177   0.000000
   60        9.467725   0.000000
   61       10.048692   0.000000
   62       11.168323   0.000000
   63       11.503710   0.000000
   64       11.825791   0.000000
   65       12.065479   0.000000
   66       12.426217   0.000000
   67       13.208771   0.000000
   68       13.311732   0.000000
 
  0.0000000E+00 -0.2631579E-01  0.2631579E-01  0.7142857E-02
    1       -6.674339   1.000000
    2       -6.193426   1.000000
    3       -6.040299   1.000000
    4       -5.953468   1.000000
    5        0.480222   1.000000
    6        0.555013   1.000000
    7        0.579185   1.000000
    8        0.747330   1.000000
    9        0.792689   1.000000
   10        1.057418   1.000000
   11        1.088751   1.000000
   12        1.157950   1.000000
   13        1.212816   1.000000
   14        1.282975   1.000000
   15        1.492806   1.000000
   16        1.548416   1.000000
   17        1.620124   1.000000
   18        1.656226   1.000000
   19        1.727610   1.000000
   20        1.802705   1.000000
   21        1.972601   1.000000
   22        2.048428   1.000000
   23        2.086665   1.000000
   24        2.139525   1.000000
   25        2.236796   1.000000
   26        2.264467   1.000000
   27        2.286082   1.000000
   28        2.338147   1.000000
   29        2.404157   1.000000
   30        2.466575   1.000000
   31        2.503929   1.000000
   32        2.558648   1.000000
   33        2.602348   1.000000
   34        2.697425   1.000000
   35        2.813295   1.000000
   36        2.849714   1.000000
   37        2.892542   1.000000
   38        2.971892   1.000000
   39        2.992655   1.000000
   40        3.051289   1.000000
   41        3.093695   1.000000
   42        3.131172   1.000000
   43        3.260030   1.000000
   44        3.359896   1.000000
   45        3.375191   1.000000
   46        3.523772   1.000000
   47        3.762430   1.000000
   48        3.948288   1.000000
   49        4.696845   1.000000
   50        4.911946   1.000000
   51        5.268756   1.000000
   52        5.715763   1.000000
   53        6.169647   1.000000
   54        6.403222   1.000000
   55        6.547034   1.000000
   56        6.736528   1.020595
   57        6.782750  -0.000001
   58        7.999456   0.000000
   59        9.226982   0.000000
   60        9.492968   0.000000
   61       10.072128   0.000000
   62       11.174416   0.000000
   63       11.501927   0.000000
   64       11.822608   0.000000
   65       12.068319   0.000000
   66       12.422180   0.000000
   67       13.202838   0.000000
   68       13.310368   0.000000
 
  0.0000000E+00 -0.5263158E-01  0.5263158E-01  0.7142857E-02
    1       -6.669540   1.000000
    2       -6.195872   1.000000
    3       -6.043069   1.000000
    4       -5.953811   1.000000
    5        0.478587   1.000000
    6        0.548907   1.000000
    7        0.589251   1.000000
    8        0.729604   1.000000
    9        0.803403   1.000000
   10        1.039419   1.000000
   11        1.092389   1.000000
   12        1.166363   1.000000
   13        1.222809   1.000000
   14        1.294827   1.000000
   15        1.488175   1.000000
   16        1.545107   1.000000
   17        1.621690   1.000000
   18        1.660399   1.000000
   19        1.706092   1.000000
   20        1.824576   1.000000
   21        1.963941   1.000000
   22        2.048755   1.000000
   23        2.095789   1.000000
   24        2.134647   1.000000
   25        2.209675   1.000000
   26        2.259098   1.000000
   27        2.289135   1.000000
   28        2.354577   1.000000
   29        2.403013   1.000000
   30        2.462946   1.000000
   31        2.508595   1.000000
   32        2.560440   1.000000
   33        2.601646   1.000000
   34        2.709218   1.000000
   35        2.810327   1.000000
   36        2.845783   1.000000
   37        2.887950   1.000000
   38        2.964887   1.000000
   39        2.990606   1.000000
   40        3.055025   1.000000
   41        3.096325   1.000000
   42        3.122455   1.000000
   43        3.273932   1.000000
   44        3.356744   1.000000
   45        3.375268   1.000000
   46        3.519310   1.000000
   47        3.706171   1.000000
   48        4.035632   1.000000
   49        4.682993   1.000000
   50        4.940420   1.000000
   51        5.268775   1.000000
   52        5.701830   1.000000
   53        6.140882   1.000000
   54        6.370866   1.000000
   55        6.541622   1.000000
   56        6.732890   1.034116
   57        6.852612  -0.000000
   58        8.026278   0.000000
   59        9.113164   0.000000
   60        9.521567   0.000000
   61       10.138399   0.000000
   62       11.191432   0.000000
   63       11.496908   0.000000
   64       11.812999   0.000000
   65       12.076679   0.000000
   66       12.410322   0.000000
   67       13.185305   0.000000
   68       13.308241   0.000000
 
  0.0000000E+00 -0.7894737E-01  0.7894737E-01  0.7142857E-02
    1       -6.661591   1.000000
    2       -6.199774   1.000000
    3       -6.047571   1.000000
    4       -5.954579   1.000000
    5        0.476251   1.000000
    6        0.540176   1.000000
    7        0.603991   1.000000
    8        0.711035   1.000000
    9        0.811460   1.000000
   10        1.018698   1.000000
   11        1.095729   1.000000
   12        1.175230   1.000000
   13        1.234670   1.000000
   14        1.315828   1.000000
   15        1.481909   1.000000
   16        1.538690   1.000000
   17        1.617804   1.000000
   18        1.666025   1.000000
   19        1.693280   1.000000
   20        1.842159   1.000000
   21        1.956148   1.000000
   22        2.043574   1.000000
   23        2.107659   1.000000
   24        2.129985   1.000000
   25        2.179030   1.000000
   26        2.254692   1.000000
   27        2.294418   1.000000
   28        2.362074   1.000000
   29        2.409211   1.000000
   30        2.458476   1.000000
   31        2.509860   1.000000
   32        2.565867   1.000000
   33        2.601479   1.000000
   34        2.725978   1.000000
   35        2.805499   1.000000
   36        2.839796   1.000000
   37        2.882500   1.000000
   38        2.955185   1.000000
   39        2.987208   1.000000
   40        3.055783   1.000000
   41        3.098738   1.000000
   42        3.118601   1.000000
   43        3.284186   1.000000
   44        3.351892   1.000000
   45        3.383608   1.000000
   46        3.504475   1.000000
   47        3.665163   1.000000
   48        4.130214   1.000000
   49        4.667559   1.000000
   50        4.979849   1.000000
   51        5.269103   1.000000
   52        5.682037   1.000000
   53        6.093902   1.000000
   54        6.342016   1.000000
   55        6.528691   1.000000
   56        6.726828   1.009926
   57        6.945978  -0.000000
   58        8.069358   0.000000
   59        8.980366   0.000000
   60        9.527077   0.000000
   61       10.235955   0.000000
   62       11.215713   0.000000
   63       11.489516   0.000000
   64       11.796955   0.000000
   65       12.090085   0.000000
   66       12.391423   0.000000
   67       13.151150   0.000000
   68       13.299966   0.000000
 
  0.0000000E+00 -0.1052632E+00  0.1052632E+00  0.7142857E-02
    1       -6.650577   1.000000
    2       -6.204900   1.000000
    3       -6.053659   1.000000
    4       -5.956036   1.000000
    5        0.473426   1.000000
    6        0.529266   1.000000
    7        0.622156   1.000000
    8        0.694494   1.000000
    9        0.815845   1.000000
   10        0.997332   1.000000
   11        1.101104   1.000000
   12        1.177803   1.000000
   13        1.250128   1.000000
   14        1.343356   1.000000
   15        1.475171   1.000000
   16        1.528506   1.000000
   17        1.604858   1.000000
   18        1.668211   1.000000
   19        1.698729   1.000000
   20        1.849984   1.000000
   21        1.953967   1.000000
   22        2.033693   1.000000
   23        2.101664   1.000000
   24        2.142917   1.000000
   25        2.153374   1.000000
   26        2.249329   1.000000
   27        2.302535   1.000000
   28        2.360161   1.000000
   29        2.420843   1.000000
   30        2.456695   1.000000
   31        2.504666   1.000000
   32        2.576058   1.000000
   33        2.601967   1.000000
   34        2.743483   1.000000
   35        2.800023   1.000000
   36        2.832541   1.000000
   37        2.877974   1.000000
   38        2.944514   1.000000
   39        2.982371   1.000000
   40        3.049381   1.000000
   41        3.100858   1.000000
   42        3.124274   1.000000
   43        3.283302   1.000000
   44        3.348478   1.000000
   45        3.401414   1.000000
   46        3.477935   1.000000
   47        3.643628   1.000000
   48        4.223440   1.000000
   49        4.657170   1.000000
   50        5.023885   1.000000
   51        5.270696   1.000000
   52        5.660597   1.000000
   53        6.034999   1.000000
   54        6.319516   1.000000
   55        6.509907   1.000000
   56        6.717739   1.000222
   57        7.051773   0.000000
   58        8.126470   0.000000
   59        8.841707   0.000000
   60        9.512487   0.000000
   61       10.351046   0.000000
   62       11.241696   0.000000
   63       11.480627   0.000000
   64       11.774928   0.000000
   65       12.107729   0.000000
   66       12.366637   0.000000
   67       13.099862   0.000000
   68       13.332308   0.000000
 
  0.0000000E+00 -0.1315789E+00  0.1315789E+00  0.7142857E-02
    1       -6.636624   1.000000
    2       -6.210964   1.000000
    3       -6.061148   1.000000
    4       -5.958486   1.000000
    5        0.470095   1.000000
    6        0.516858   1.000000
    7        0.640608   1.000000
    8        0.683655   1.000000
    9        0.816753   1.000000
   10        0.976622   1.000000
   11        1.108526   1.000000
   12        1.172250   1.000000
   13        1.269623   1.000000
   14        1.372831   1.000000
   15        1.468766   1.000000
   16        1.514353   1.000000
   17        1.588637   1.000000
   18        1.666875   1.000000
   19        1.716659   1.000000
   20        1.846862   1.000000
   21        1.958531   1.000000
   22        2.020640   1.000000
   23        2.087409   1.000000
   24        2.132900   1.000000
   25        2.166469   1.000000
   26        2.242862   1.000000
   27        2.312994   1.000000
   28        2.356954   1.000000
   29        2.425489   1.000000
   30        2.464178   1.000000
   31        2.495080   1.000000
   32        2.587454   1.000000
   33        2.604014   1.000000
   34        2.754863   1.000000
   35        2.797806   1.000000
   36        2.825270   1.000000
   37        2.875066   1.000000
   38        2.934027   1.000000
   39        2.976254   1.000000
   40        3.038206   1.000000
   41        3.104431   1.000000
   42        3.135112   1.000000
   43        3.273122   1.000000
   44        3.345902   1.000000
   45        3.412569   1.000000
   46        3.460375   1.000000
   47        3.635242   1.000000
   48        4.304293   1.000000
   49        4.660767   1.000000
   50        5.066013   1.000000
   51        5.275996   1.000000
   52        5.641946   1.000000
   53        5.971855   1.000000
   54        6.299169   1.000000
   55        6.487496   1.000000
   56        6.705162   1.000000
   57        7.164288   0.000000
   58        8.194749   0.000000
   59        8.704061   0.000000
   60        9.484397   0.000000
   61       10.472949   0.000000
   62       11.263100   0.000000
   63       11.469769   0.000000
   64       11.748766   0.000000
   65       12.128157   0.000000
   66       12.337595   0.000000
   67       13.026973   0.000000
   68       13.214000   0.000000
 
  0.0000000E+00 -0.1578947E+00  0.1578947E+00  0.7142857E-02
    1       -6.619889   1.000000
    2       -6.217650   1.000000
    3       -6.069842   1.000000
    4       -5.962234   1.000000
    5        0.466072   1.000000
    6        0.503954   1.000000
    7        0.649247   1.000000
    8        0.688250   1.000000
    9        0.814944   1.000000
   10        0.957554   1.000000
   11        1.114671   1.000000
   12        1.162545   1.000000
   13        1.290353   1.000000
   14        1.398697   1.000000
   15        1.463022   1.000000
   16        1.497752   1.000000
   17        1.576240   1.000000
   18        1.662939   1.000000
   19        1.739197   1.000000
   20        1.837223   1.000000
   21        1.965855   1.000000
   22        2.007120   1.000000
   23        2.075502   1.000000
   24        2.119603   1.000000
   25        2.186821   1.000000
   26        2.238121   1.000000
   27        2.323526   1.000000
   28        2.358569   1.000000
   29        2.421120   1.000000
   30        2.477139   1.000000
   31        2.486478   1.000000
   32        2.591978   1.000000
   33        2.612470   1.000000
   34        2.754717   1.000000
   35        2.800155   1.000000
   36        2.821303   1.000000
   37        2.873018   1.000000
   38        2.923969   1.000000
   39        2.970347   1.000000
   40        3.026696   1.000000
   41        3.108676   1.000000
   42        3.147192   1.000000
   43        3.256400   1.000000
   44        3.343539   1.000000
   45        3.391636   1.000000
   46        3.482897   1.000000
   47        3.632271   1.000000
   48        4.357758   1.000000
   49        4.690539   1.000000
   50        5.098854   1.000000
   51        5.289126   1.000000
   52        5.629825   1.000000
   53        5.910424   1.000000
   54        6.276453   1.000000
   55        6.463901   1.000000
   56        6.688718   1.000000
   57        7.280256   0.000000
   58        8.270291   0.000000
   59        8.573210   0.000000
   60        9.447771   0.000000
   61       10.594308   0.000000
   62       11.275350   0.000000
   63       11.452605   0.000000
   64       11.722902   0.000000
   65       12.147650   0.000000
   66       12.307294   0.000000
   67       12.922558   0.000000
   68       13.032262   0.000000
 
  0.0000000E+00 -0.1842105E+00  0.1842105E+00  0.7142857E-02
    1       -6.600571   1.000000
    2       -6.224631   1.000000
    3       -6.079524   1.000000
    4       -5.967561   1.000000
    5        0.461110   1.000000
    6        0.491777   1.000000
    7        0.646362   1.000000
    8        0.708398   1.000000
    9        0.811643   1.000000
   10        0.941101   1.000000
   11        1.109535   1.000000
   12        1.159003   1.000000
   13        1.309013   1.000000
   14        1.413746   1.000000
   15        1.457303   1.000000
   16        1.483439   1.000000
   17        1.572589   1.000000
   18        1.656770   1.000000
   19        1.761558   1.000000
   20        1.827831   1.000000
   21        1.970245   1.000000
   22        1.997059   1.000000
   23        2.067842   1.000000
   24        2.111983   1.000000
   25        2.195122   1.000000
   26        2.243749   1.000000
   27        2.332178   1.000000
   28        2.367966   1.000000
   29        2.412610   1.000000
   30        2.472135   1.000000
   31        2.497214   1.000000
   32        2.589795   1.000000
   33        2.625114   1.000000
   34        2.748445   1.000000
   35        2.797235   1.000000
   36        2.825257   1.000000
   37        2.870355   1.000000
   38        2.913228   1.000000
   39        2.968398   1.000000
   40        3.016956   1.000000
   41        3.112891   1.000000
   42        3.158205   1.000000
   43        3.232766   1.000000
   44        3.342180   1.000000
   45        3.369514   1.000000
   46        3.518843   1.000000
   47        3.630558   1.000000
   48        4.376208   1.000000
   49        4.750867   1.000000
   50        5.117430   1.000000
   51        5.312656   1.000000
   52        5.626342   1.000000
   53        5.855220   1.000000
   54        6.248172   1.000000
   55        6.441464   1.000000
   56        6.668110   1.000000
   57        7.397546   0.000000
   58        8.341721   0.000000
   59        8.461714   0.000000
   60        9.405849   0.000000
   61       10.709555   0.000000
   62       11.278039   0.000000
   63       11.420515   0.000000
   64       11.703980   0.000000
   65       12.155214   0.000000
   66       12.283203   0.000000
   67       12.763546   0.000000
   68       12.893309   0.000000
 
  0.0000000E+00 -0.2105263E+00  0.2105263E+00  0.7142857E-02
    1       -6.578896   1.000000
    2       -6.231589   1.000000
    3       -6.089957   1.000000
    4       -5.974712   1.000000
    5        0.455093   1.000000
    6        0.481519   1.000000
    7        0.642357   1.000000
    8        0.730161   1.000000
    9        0.808780   1.000000
   10        0.928499   1.000000
   11        1.087971   1.000000
   12        1.166738   1.000000
   13        1.322047   1.000000
   14        1.413067   1.000000
   15        1.451802   1.000000
   16        1.475378   1.000000
   17        1.579989   1.000000
   18        1.650530   1.000000
   19        1.775861   1.000000
   20        1.828266   1.000000
   21        1.966298   1.000000
   22        1.994177   1.000000
   23        2.065293   1.000000
   24        2.109330   1.000000
   25        2.189680   1.000000
   26        2.261532   1.000000
   27        2.340898   1.000000
   28        2.380324   1.000000
   29        2.403824   1.000000
   30        2.465265   1.000000
   31        2.507839   1.000000
   32        2.586270   1.000000
   33        2.636312   1.000000
   34        2.741826   1.000000
   35        2.790146   1.000000
   36        2.830565   1.000000
   37        2.866833   1.000000
   38        2.901598   1.000000
   39        2.973180   1.000000
   40        3.009171   1.000000
   41        3.116602   1.000000
   42        3.165361   1.000000
   43        3.204647   1.000000
   44        3.338704   1.000000
   45        3.361048   1.000000
   46        3.557786   1.000000
   47        3.628395   1.000000
   48        4.368139   1.000000
   49        4.829805   1.000000
   50        5.124063   1.000000
   51        5.343181   1.000000
   52        5.630589   1.000000
   53        5.810646   1.000000
   54        6.212955   1.000000
   55        6.421656   1.000000
   56        6.643116   1.000000
   57        7.514641   0.000000
   58        8.317032   0.000000
   59        8.462540   0.000000
   60        9.360677   0.000000
   61       10.813424   0.000000
   62       11.274828   0.000000
   63       11.367391   0.000000
   64       11.695945   0.000000
   65       12.130405   0.000000
   66       12.273812   0.000000
   67       12.595287   0.000000
   68       12.792353   0.000000
 
  0.0000000E+00 -0.2368421E+00  0.2368421E+00  0.7142857E-02
    1       -6.555147   1.000000
    2       -6.238217   1.000000
    3       -6.100901   1.000000
    4       -5.983875   1.000000
    5        0.448421   1.000000
    6        0.473867   1.000000
    7        0.639905   1.000000
    8        0.745073   1.000000
    9        0.808848   1.000000
   10        0.921330   1.000000
   11        1.058167   1.000000
   12        1.178276   1.000000
   13        1.325913   1.000000
   14        1.401980   1.000000
   15        1.447634   1.000000
   16        1.473025   1.000000
   17        1.593351   1.000000
   18        1.647680   1.000000
   19        1.777522   1.000000
   20        1.844522   1.000000
   21        1.955497   1.000000
   22        1.996493   1.000000
   23        2.068128   1.000000
   24        2.109674   1.000000
   25        2.180570   1.000000
   26        2.282432   1.000000
   27        2.350101   1.000000
   28        2.380475   1.000000
   29        2.408303   1.000000
   30        2.461691   1.000000
   31        2.509938   1.000000
   32        2.585219   1.000000
   33        2.643584   1.000000
   34        2.736393   1.000000
   35        2.783322   1.000000
   36        2.830526   1.000000
   37        2.862779   1.000000
   38        2.894144   1.000000
   39        2.982585   1.000000
   40        3.003225   1.000000
   41        3.118149   1.000000
   42        3.156538   1.000000
   43        3.188792   1.000000
   44        3.327571   1.000000
   45        3.370606   1.000000
   46        3.597160   1.000000
   47        3.625742   1.000000
   48        4.345094   1.000000
   49        4.912184   1.000000
   50        5.125770   1.000000
   51        5.374954   1.000000
   52        5.636643   1.000000
   53        5.782448   1.000000
   54        6.171497   1.000000
   55        6.404627   1.000000
   56        6.613670   1.000000
   57        7.630440   0.000000
   58        8.232485   0.000000
   59        8.540182   0.000000
   60        9.313516   0.000000
   61       10.899664   0.000000
   62       11.269995   0.000000
   63       11.297693   0.000000
   64       11.696614   0.000000
   65       12.063344   0.000000
   66       12.257709   0.000000
   67       12.476930   0.000000
   68       12.703636   0.000000
 
  0.0000000E+00 -0.2631579E+00  0.2631579E+00  0.7142857E-02
    1       -6.529674   1.000000
    2       -6.244218   1.000000
    3       -6.112096   1.000000
    4       -5.995177   1.000000
    5        0.442083   1.000000
    6        0.468841   1.000000
    7        0.638919   1.000000
    8        0.749142   1.000000
    9        0.811290   1.000000
   10        0.919619   1.000000
   11        1.028172   1.000000
   12        1.189025   1.000000
   13        1.319982   1.000000
   14        1.387838   1.000000
   15        1.443049   1.000000
   16        1.478188   1.000000
   17        1.603196   1.000000
   18        1.650454   1.000000
   19        1.778063   1.000000
   20        1.866539   1.000000
   21        1.944056   1.000000
   22        2.000094   1.000000
   23        2.074289   1.000000
   24        2.110834   1.000000
   25        2.173933   1.000000
   26        2.300303   1.000000
   27        2.351413   1.000000
   28        2.380996   1.000000
   29        2.421050   1.000000
   30        2.460422   1.000000
   31        2.504963   1.000000
   32        2.587583   1.000000
   33        2.645625   1.000000
   34        2.730869   1.000000
   35        2.778860   1.000000
   36        2.824110   1.000000
   37        2.858147   1.000000
   38        2.896349   1.000000
   39        2.989381   1.000000
   40        3.002588   1.000000
   41        3.107457   1.000000
   42        3.139601   1.000000
   43        3.190913   1.000000
   44        3.313266   1.000000
   45        3.390343   1.000000
   46        3.616764   1.000000
   47        3.641962   1.000000
   48        4.314045   1.000000
   49        4.987006   1.000000
   50        5.129456   1.000000
   51        5.405441   1.000000
   52        5.635182   1.000000
   53        5.775765   1.000000
   54        6.126195   1.000000
   55        6.389533   1.000000
   56        6.580028   1.000000
   57        7.744116   0.000000
   58        8.163538   0.000000
   59        8.619462   0.000000
   60        9.265107   0.000000
   61       10.960187   0.000000
   62       11.210939   0.000000
   63       11.279897   0.000000
   64       11.701694   0.000000
   65       11.954309   0.000000
   66       12.207828   0.000000
   67       12.437678   0.000000
   68       12.625724   0.000000
 
  0.0000000E+00 -0.2894737E+00  0.2894737E+00  0.7142857E-02
    1       -6.502889   1.000000
    2       -6.249297   1.000000
    3       -6.123281   1.000000
    4       -6.008684   1.000000
    5        0.437072   1.000000
    6        0.466308   1.000000
    7        0.638652   1.000000
    8        0.745443   1.000000
    9        0.810880   1.000000
   10        0.914594   1.000000
   11        1.010704   1.000000
   12        1.196883   1.000000
   13        1.308064   1.000000
   14        1.372396   1.000000
   15        1.439905   1.000000
   16        1.488888   1.000000
   17        1.606919   1.000000
   18        1.654762   1.000000
   19        1.786562   1.000000
   20        1.883291   1.000000
   21        1.940078   1.000000
   22        2.003760   1.000000
   23        2.079204   1.000000
   24        2.112446   1.000000
   25        2.173112   1.000000
   26        2.304314   1.000000
   27        2.350051   1.000000
   28        2.393149   1.000000
   29        2.430958   1.000000
   30        2.456811   1.000000
   31        2.503133   1.000000
   32        2.590898   1.000000
   33        2.642526   1.000000
   34        2.722920   1.000000
   35        2.776364   1.000000
   36        2.815113   1.000000
   37        2.857157   1.000000
   38        2.905015   1.000000
   39        2.986382   1.000000
   40        3.011783   1.000000
   41        3.079632   1.000000
   42        3.138021   1.000000
   43        3.195019   1.000000
   44        3.296877   1.000000
   45        3.416330   1.000000
   46        3.611424   1.000000
   47        3.682015   1.000000
   48        4.278851   1.000000
   49        5.045889   1.000000
   50        5.141284   1.000000
   51        5.435223   1.000000
   52        5.624207   1.000000
   53        5.785356   1.000000
   54        6.080730   1.000000
   55        6.375142   1.000000
   56        6.543049   1.000000
   57        7.854952   0.000000
   58        8.118841   0.000000
   59        8.691015   0.000000
   60        9.215856   0.000000
   61       10.986112   0.000000
   62       11.131516   0.000000
   63       11.297206   0.000000
   64       11.708007   0.000000
   65       11.818620   0.000000
   66       12.150571   0.000000
   67       12.433292   0.000000
   68       12.560225   0.000000
 
  0.0000000E+00 -0.3157895E+00  0.3157895E+00  0.7142857E-02
    1       -6.475321   1.000000
    2       -6.253128   1.000000
    3       -6.134189   1.000000
    4       -6.024373   1.000000
    5        0.433902   1.000000
    6        0.466386   1.000000
    7        0.638090   1.000000
    8        0.738306   1.000000
    9        0.805152   1.000000
   10        0.893804   1.000000
   11        1.017518   1.000000
   12        1.200948   1.000000
   13        1.294484   1.000000
   14        1.356995   1.000000
   15        1.439673   1.000000
   16        1.500774   1.000000
   17        1.608059   1.000000
   18        1.655736   1.000000
   19        1.803706   1.000000
   20        1.887297   1.000000
   21        1.951475   1.000000
   22        2.007705   1.000000
   23        2.078849   1.000000
   24        2.115651   1.000000
   25        2.178444   1.000000
   26        2.290160   1.000000
   27        2.355347   1.000000
   28        2.406907   1.000000
   29        2.437009   1.000000
   30        2.451459   1.000000
   31        2.510753   1.000000
   32        2.593441   1.000000
   33        2.636181   1.000000
   34        2.711733   1.000000
   35        2.771345   1.000000
   36        2.809673   1.000000
   37        2.861989   1.000000
   38        2.915672   1.000000
   39        2.980400   1.000000
   40        3.021248   1.000000
   41        3.052670   1.000000
   42        3.139992   1.000000
   43        3.198066   1.000000
   44        3.278609   1.000000
   45        3.446282   1.000000
   46        3.603886   1.000000
   47        3.723198   1.000000
   48        4.242014   1.000000
   49        5.084935   1.000000
   50        5.164389   1.000000
   51        5.464777   1.000000
   52        5.609231   1.000000
   53        5.797311   1.000000
   54        6.040103   1.000000
   55        6.360040   1.000000
   56        6.504541   1.000000
   57        7.961882   0.000000
   58        8.102088   0.000000
   59        8.749178   0.000000
   60        9.165989   0.000000
   61       10.969122   0.000000
   62       11.072107   0.000000
   63       11.324656   0.000000
   64       11.672281   0.000000
   65       11.721500   0.000000
   66       12.100850   0.000000
   67       12.422989   0.000000
   68       12.507575   0.000000
 
  0.0000000E+00 -0.3421053E+00  0.3421053E+00  0.7142857E-02
    1       -6.447660   1.000000
    2       -6.255318   1.000000
    3       -6.144561   1.000000
    4       -6.042132   1.000000
    5        0.432638   1.000000
    6        0.469380   1.000000
    7        0.636172   1.000000
    8        0.729631   1.000000
    9        0.794417   1.000000
   10        0.865173   1.000000
   11        1.038984   1.000000
   12        1.201470   1.000000
   13        1.281477   1.000000
   14        1.344272   1.000000
   15        1.441872   1.000000
   16        1.510088   1.000000
   17        1.609118   1.000000
   18        1.654581   1.000000
   19        1.823611   1.000000
   20        1.887108   1.000000
   21        1.971227   1.000000
   22        2.012938   1.000000
   23        2.075012   1.000000
   24        2.118660   1.000000
   25        2.187181   1.000000
   26        2.270287   1.000000
   27        2.350368   1.000000
   28        2.420744   1.000000
   29        2.441256   1.000000
   30        2.453426   1.000000
   31        2.522668   1.000000
   32        2.594975   1.000000
   33        2.630413   1.000000
   34        2.698557   1.000000
   35        2.760199   1.000000
   36        2.810175   1.000000
   37        2.871501   1.000000
   38        2.925356   1.000000
   39        2.972587   1.000000
   40        3.019649   1.000000
   41        3.042689   1.000000
   42        3.141459   1.000000
   43        3.199278   1.000000
   44        3.259270   1.000000
   45        3.478045   1.000000
   46        3.595586   1.000000
   47        3.764143   1.000000
   48        4.205453   1.000000
   49        5.111807   1.000000
   50        5.192364   1.000000
   51        5.491480   1.000000
   52        5.593815   1.000000
   53        5.801194   1.000000
   54        6.010172   1.000000
   55        6.342472   1.000000
   56        6.467487   1.000000
   57        8.060392   0.000000
   58        8.118047   0.000000
   59        8.788663   0.000000
   60        9.115595   0.000000
   61       10.918131   0.000000
   62       11.038914   0.000000
   63       11.352577   0.000000
   64       11.545305   0.000000
   65       11.727611   0.000000
   66       12.058557   0.000000
   67       12.396613   0.000000
   68       12.457427   0.000000
 
  0.0000000E+00 -0.3684211E+00  0.3684211E+00  0.7142857E-02
    1       -6.420837   1.000000
    2       -6.255322   1.000000
    3       -6.154167   1.000000
    4       -6.061729   1.000000
    5        0.433070   1.000000
    6        0.475568   1.000000
    7        0.632048   1.000000
    8        0.718848   1.000000
    9        0.779504   1.000000
   10        0.840723   1.000000
   11        1.062581   1.000000
   12        1.199590   1.000000
   13        1.269620   1.000000
   14        1.337276   1.000000
   15        1.445268   1.000000
   16        1.514054   1.000000
   17        1.611144   1.000000
   18        1.654281   1.000000
   19        1.837761   1.000000
   20        1.894813   1.000000
   21        1.989762   1.000000
   22        2.020573   1.000000
   23        2.071788   1.000000
   24        2.119493   1.000000
   25        2.194542   1.000000
   26        2.251830   1.000000
   27        2.331922   1.000000
   28        2.436886   1.000000
   29        2.448107   1.000000
   30        2.456534   1.000000
   31        2.535023   1.000000
   32        2.595139   1.000000
   33        2.630333   1.000000
   34        2.685323   1.000000
   35        2.744284   1.000000
   36        2.813530   1.000000
   37        2.883261   1.000000
   38        2.929623   1.000000
   39        2.964164   1.000000
   40        3.011469   1.000000
   41        3.048720   1.000000
   42        3.141412   1.000000
   43        3.197962   1.000000
   44        3.240675   1.000000
   45        3.509384   1.000000
   46        3.587399   1.000000
   47        3.803877   1.000000
   48        4.170814   1.000000
   49        5.136616   1.000000
   50        5.217939   1.000000
   51        5.508733   1.000000
   52        5.579106   1.000000
   53        5.795143   1.000000
   54        5.994656   1.000000
   55        6.320457   1.000000
   56        6.435664   1.000000
   57        8.130605   0.000000
   58        8.184480   0.000000
   59        8.805014   0.000000
   60        9.064543   0.000000
   61       10.864536   0.000000
   62       11.012314   0.000000
   63       11.368430   0.000000
   64       11.441146   0.000000
   65       11.737017   0.000000
   66       12.023758   0.000000
   67       12.357407   0.000000
   68       12.408786   0.000000
 
  0.0000000E+00 -0.3947368E+00  0.3947368E+00  0.7142857E-02
    1       -6.396155   1.000000
    2       -6.252362   1.000000
    3       -6.162846   1.000000
    4       -6.082740   1.000000
    5        0.434822   1.000000
    6        0.485008   1.000000
    7        0.625413   1.000000
    8        0.703155   1.000000
    9        0.764918   1.000000
   10        0.824563   1.000000
   11        1.081950   1.000000
   12        1.196577   1.000000
   13        1.258985   1.000000
   14        1.338516   1.000000
   15        1.448543   1.000000
   16        1.511588   1.000000
   17        1.613936   1.000000
   18        1.656653   1.000000
   19        1.843087   1.000000
   20        1.912879   1.000000
   21        2.003636   1.000000
   22        2.029162   1.000000
   23        2.072016   1.000000
   24        2.118427   1.000000
   25        2.195434   1.000000
   26        2.238790   1.000000
   27        2.309151   1.000000
   28        2.449287   1.000000
   29        2.456433   1.000000
   30        2.458642   1.000000
   31        2.547543   1.000000
   32        2.594483   1.000000
   33        2.637590   1.000000
   34        2.673510   1.000000
   35        2.725664   1.000000
   36        2.817473   1.000000
   37        2.893320   1.000000
   38        2.924542   1.000000
   39        2.961323   1.000000
   40        3.010722   1.000000
   41        3.054808   1.000000
   42        3.139680   1.000000
   43        3.193463   1.000000
   44        3.225582   1.000000
   45        3.537630   1.000000
   46        3.580676   1.000000
   47        3.840964   1.000000
   48        4.139596   1.000000
   49        5.163228   1.000000
   50        5.239969   1.000000
   51        5.509486   1.000000
   52        5.564889   1.000000
   53        5.786048   1.000000
   54        5.992139   1.000000
   55        6.293251   1.000000
   56        6.411822   1.000000
   57        8.193155   0.000000
   58        8.276258   0.000000
   59        8.796041   0.000000
   60        9.012200   0.000000
   61       10.823272   0.000000
   62       10.983896   0.000000
   63       11.327996   0.000000
   64       11.408497   0.000000
   65       11.747213   0.000000
   66       11.996833   0.000000
   67       12.303327   0.000000
   68       12.367569   0.000000
 
  0.0000000E+00 -0.4210526E+00  0.4210526E+00  0.7142857E-02
    1       -6.375272   1.000000
    2       -6.245470   1.000000
    3       -6.170630   1.000000
    4       -6.104386   1.000000
    5        0.437396   1.000000
    6        0.497387   1.000000
    7        0.616528   1.000000
    8        0.681926   1.000000
    9        0.756143   1.000000
   10        0.814684   1.000000
   11        1.094816   1.000000
   12        1.193201   1.000000
   13        1.249907   1.000000
   14        1.348456   1.000000
   15        1.450555   1.000000
   16        1.503726   1.000000
   17        1.616356   1.000000
   18        1.661883   1.000000
   19        1.844389   1.000000
   20        1.934445   1.000000
   21        2.013851   1.000000
   22        2.035375   1.000000
   23        2.075651   1.000000
   24        2.116409   1.000000
   25        2.190286   1.000000
   26        2.229424   1.000000
   27        2.290398   1.000000
   28        2.439283   1.000000
   29        2.464430   1.000000
   30        2.476974   1.000000
   31        2.559863   1.000000
   32        2.595059   1.000000
   33        2.646360   1.000000
   34        2.664465   1.000000
   35        2.707483   1.000000
   36        2.821399   1.000000
   37        2.892034   1.000000
   38        2.923698   1.000000
   39        2.962310   1.000000
   40        3.014356   1.000000
   41        3.057694   1.000000
   42        3.136971   1.000000
   43        3.186902   1.000000
   44        3.215502   1.000000
   45        3.557011   1.000000
   46        3.579936   1.000000
   47        3.873439   1.000000
   48        4.113212   1.000000
   49        5.191657   1.000000
   50        5.259278   1.000000
   51        5.495022   1.000000
   52        5.547750   1.000000
   53        5.781284   1.000000
   54        5.998604   1.000000
   55        6.263071   1.000000
   56        6.395845   1.000000
   57        8.268496   0.000000
   58        8.366030   0.000000
   59        8.763075   0.000000
   60        8.957701   0.000000
   61       10.797040   0.000000
   62       10.954046   0.000000
   63       11.269188   0.000000
   64       11.411580   0.000000
   65       11.757334   0.000000
   66       11.978119   0.000000
   67       12.240958   0.000000
   68       12.338544   0.000000
 
  0.0000000E+00 -0.4473684E+00  0.4473684E+00  0.7142857E-02
    1       -6.359825   1.000000
    2       -6.233997   1.000000
    3       -6.178099   1.000000
    4       -6.125050   1.000000
    5        0.440127   1.000000
    6        0.511767   1.000000
    7        0.605867   1.000000
    8        0.660455   1.000000
    9        0.752568   1.000000
   10        0.808629   1.000000
   11        1.101874   1.000000
   12        1.189989   1.000000
   13        1.242968   1.000000
   14        1.364500   1.000000
   15        1.450241   1.000000
   16        1.493213   1.000000
   17        1.617752   1.000000
   18        1.668399   1.000000
   19        1.844742   1.000000
   20        1.953656   1.000000
   21        2.019625   1.000000
   22        2.042341   1.000000
   23        2.078804   1.000000
   24        2.113055   1.000000
   25        2.185830   1.000000
   26        2.217787   1.000000
   27        2.280801   1.000000
   28        2.424333   1.000000
   29        2.470953   1.000000
   30        2.497040   1.000000
   31        2.570203   1.000000
   32        2.597601   1.000000
   33        2.644826   1.000000
   34        2.660122   1.000000
   35        2.697254   1.000000
   36        2.824977   1.000000
   37        2.880589   1.000000
   38        2.932467   1.000000
   39        2.963533   1.000000
   40        3.016345   1.000000
   41        3.058081   1.000000
   42        3.134542   1.000000
   43        3.181746   1.000000
   44        3.208879   1.000000
   45        3.560076   1.000000
   46        3.591416   1.000000
   47        3.899005   1.000000
   48        4.093031   1.000000
   49        5.219874   1.000000
   50        5.275399   1.000000
   51        5.474346   1.000000
   52        5.526600   1.000000
   53        5.781454   1.000000
   54        6.010003   1.000000
   55        6.234374   1.000000
   56        6.385907   1.000000
   57        8.353060   0.000000
   58        8.447061   0.000000
   59        8.710681   0.000000
   60        8.902263   0.000000
   61       10.783392   0.000000
   62       10.927003   0.000000
   63       11.229577   0.000000
   64       11.412865   0.000000
   65       11.766255   0.000000
   66       11.967141   0.000000
   67       12.184240   0.000000
   68       12.319520   0.000000
 
  0.0000000E+00 -0.4736842E+00  0.4736842E+00  0.7142857E-02
    1       -6.350658   1.000000
    2       -6.218734   1.000000
    3       -6.187127   1.000000
    4       -6.141192   1.000000
    5        0.442239   1.000000
    6        0.525646   1.000000
    7        0.594646   1.000000
    8        0.645188   1.000000
    9        0.751491   1.000000
   10        0.805247   1.000000
   11        1.105064   1.000000
   12        1.187611   1.000000
   13        1.238642   1.000000
   14        1.381127   1.000000
   15        1.446829   1.000000
   16        1.484322   1.000000
   17        1.618334   1.000000
   18        1.673703   1.000000
   19        1.844899   1.000000
   20        1.966652   1.000000
   21        2.021121   1.000000
   22        2.052131   1.000000
   23        2.079094   1.000000
   24        2.108144   1.000000
   25        2.184765   1.000000
   26        2.206338   1.000000
   27        2.278414   1.000000
   28        2.411747   1.000000
   29        2.474975   1.000000
   30        2.514100   1.000000
   31        2.576761   1.000000
   32        2.601771   1.000000
   33        2.633594   1.000000
   34        2.656021   1.000000
   35        2.698473   1.000000
   36        2.827561   1.000000
   37        2.870729   1.000000
   38        2.941155   1.000000
   39        2.964973   1.000000
   40        3.013365   1.000000
   41        3.058831   1.000000
   42        3.133000   1.000000
   43        3.179661   1.000000
   44        3.204392   1.000000
   45        3.558363   1.000000
   46        3.602444   1.000000
   47        3.915441   1.000000
   48        4.080295   1.000000
   49        5.243548   1.000000
   50        5.285533   1.000000
   51        5.457036   1.000000
   52        5.507406   1.000000
   53        5.783263   1.000000
   54        6.021309   1.000000
   55        6.212738   1.000000
   56        6.380462   1.000000
   57        8.437707   0.000000
   58        8.509681   0.000000
   59        8.647058   0.000000
   60        8.853982   0.000000
   61       10.777805   0.000000
   62       10.908257   0.000000
   63       11.208028   0.000000
   64       11.412103   0.000000
   65       11.772636   0.000000
   66       11.962109   0.000000
   67       12.144214   0.000000
   68       12.305925   0.000000
 
  0.0000000E+00 -0.5000000E+00  0.5000000E+00  0.7142857E-02
    1       -6.347672   1.000000
    2       -6.205662   1.000000
    3       -6.197189   1.000000
    4       -6.147434   1.000000
    5        0.443037   1.000000
    6        0.532397   1.000000
    7        0.588724   1.000000
    8        0.639844   1.000000
    9        0.751298   1.000000
   10        0.804147   1.000000
   11        1.105944   1.000000
   12        1.186729   1.000000
   13        1.237178   1.000000
   14        1.389108   1.000000
   15        1.443813   1.000000
   16        1.481014   1.000000
   17        1.618478   1.000000
   18        1.675726   1.000000
   19        1.844953   1.000000
   20        1.971145   1.000000
   21        2.021412   1.000000
   22        2.057627   1.000000
   23        2.078132   1.000000
   24        2.105406   1.000000
   25        2.184851   1.000000
   26        2.201659   1.000000
   27        2.278331   1.000000
   28        2.406783   1.000000
   29        2.476316   1.000000
   30        2.521334   1.000000
   31        2.578833   1.000000
   32        2.605090   1.000000
   33        2.625974   1.000000
   34        2.654206   1.000000
   35        2.700543   1.000000
   36        2.828493   1.000000
   37        2.867023   1.000000
   38        2.944648   1.000000
   39        2.966032   1.000000
   40        3.010583   1.000000
   41        3.059545   1.000000
   42        3.132442   1.000000
   43        3.179375   1.000000
   44        3.202638   1.000000
   45        3.557550   1.000000
   46        3.606469   1.000000
   47        3.921121   1.000000
   48        4.075931   1.000000
   49        5.253962   1.000000
   50        5.288162   1.000000
   51        5.450471   1.000000
   52        5.499299   1.000000
   53        5.784133   1.000000
   54        6.026224   1.000000
   55        6.204419   1.000000
   56        6.378721   1.000000
   57        8.489347   0.000000
   58        8.533482   0.000000
   59        8.604786   0.000000
   60        8.832690   0.000000
   61       10.776414   0.000000
   62       10.901616   0.000000
   63       11.201282   0.000000
   64       11.411510   0.000000
   65       11.775004   0.000000
   66       11.960875   0.000000
   67       12.129878   0.000000
   68       12.301793   0.000000
 
 -0.5000000E+00  0.0000000E+00  0.5000000E+00  0.7142857E-02
    1       -6.189596   1.000000
    2       -6.075222   1.000000
    3       -6.017340   1.000000
    4       -5.973798   1.000000
    5        0.641428   1.000000
    6        0.688840   1.000000
    7        0.776116   1.000000
    8        0.821967   1.000000
    9        0.833205   1.000000
   10        0.929020   1.000000
   11        1.148324   1.000000
   12        1.216808   1.000000
   13        1.370508   1.000000
   14        1.430658   1.000000
   15        1.541128   1.000000
   16        1.588820   1.000000
   17        1.716504   1.000000
   18        1.724489   1.000000
   19        1.874333   1.000000
   20        1.911447   1.000000
   21        1.940787   1.000000
   22        2.030931   1.000000
   23        2.063343   1.000000
   24        2.132821   1.000000
   25        2.177687   1.000000
   26        2.231668   1.000000
   27        2.292505   1.000000
   28        2.341139   1.000000
   29        2.449108   1.000000
   30        2.479103   1.000000
   31        2.550946   1.000000
   32        2.592266   1.000000
   33        2.662629   1.000000
   34        2.679105   1.000000
   35        2.696393   1.000000
   36        2.718328   1.000000
   37        2.825898   1.000000
   38        2.893864   1.000000
   39        2.918120   1.000000
   40        2.994785   1.000000
   41        3.068130   1.000000
   42        3.088348   1.000000
   43        3.195185   1.000000
   44        3.242050   1.000000
   45        3.274328   1.000000
   46        3.293139   1.000000
   47        3.652106   1.000000
   48        3.669894   1.000000
   49        4.680507   1.000000
   50        4.719454   1.000000
   51        4.768587   1.000000
   52        4.785697   1.000000
   53        5.259798   1.000000
   54        5.353025   1.000000
   55        5.758415   1.000000
   56        5.844715   1.000000
   57        9.107484   0.000000
   58        9.290111   0.000000
   59        9.557223   0.000000
   60        9.595357   0.000000
   61        9.816628   0.000000
   62       10.143312   0.000000
   63       11.119504   0.000000
   64       11.209580   0.000000
   65       11.373088   0.000000
   66       11.793317   0.000000
   67       12.133079   0.000000
   68       12.932680   0.000000
 
 -0.4736842E+00  0.0000000E+00  0.4736842E+00  0.7142857E-02
    1       -6.195931   1.000000
    2       -6.076403   1.000000
    3       -6.014110   1.000000
    4       -5.973853   1.000000
    5        0.640288   1.000000
    6        0.688122   1.000000
    7        0.774049   1.000000
    8        0.816275   1.000000
    9        0.842758   1.000000
   10        0.931284   1.000000
   11        1.145472   1.000000
   12        1.216306   1.000000
   13        1.369329   1.000000
   14        1.430436   1.000000
   15        1.531027   1.000000
   16        1.600536   1.000000
   17        1.701961   1.000000
   18        1.737374   1.000000
   19        1.872638   1.000000
   20        1.908723   1.000000
   21        1.936570   1.000000
   22        2.030086   1.000000
   23        2.064432   1.000000
   24        2.133254   1.000000
   25        2.185230   1.000000
   26        2.231401   1.000000
   27        2.296684   1.000000
   28        2.343519   1.000000
   29        2.438691   1.000000
   30        2.485005   1.000000
   31        2.543606   1.000000
   32        2.599812   1.000000
   33        2.644460   1.000000
   34        2.666106   1.000000
   35        2.712894   1.000000
   36        2.726858   1.000000
   37        2.827332   1.000000
   38        2.886345   1.000000
   39        2.919207   1.000000
   40        2.994383   1.000000
   41        3.057287   1.000000
   42        3.092056   1.000000
   43        3.175250   1.000000
   44        3.248847   1.000000
   45        3.282597   1.000000
   46        3.322089   1.000000
   47        3.606148   1.000000
   48        3.726625   1.000000
   49        4.628953   1.000000
   50        4.689570   1.000000
   51        4.788829   1.000000
   52        4.834452   1.000000
   53        5.253912   1.000000
   54        5.361203   1.000000
   55        5.766990   1.000000
   56        5.855575   1.000000
   57        9.046280   0.000000
   58        9.343766   0.000000
   59        9.502342   0.000000
   60        9.665754   0.000000
   61        9.826058   0.000000
   62       10.148765   0.000000
   63       11.109208   0.000000
   64       11.187783   0.000000
   65       11.390191   0.000000
   66       11.825849   0.000000
   67       12.100941   0.000000
   68       12.968697   0.000000
 
 -0.4473684E+00  0.0000000E+00  0.4473684E+00  0.7142857E-02
    1       -6.213501   1.000000
    2       -6.079616   1.000000
    3       -6.006245   1.000000
    4       -5.973820   1.000000
    5        0.638001   1.000000
    6        0.684272   1.000000
    7        0.768593   1.000000
    8        0.810608   1.000000
    9        0.860301   1.000000
   10        0.936937   1.000000
   11        1.137574   1.000000
   12        1.215743   1.000000
   13        1.365475   1.000000
   14        1.428128   1.000000
   15        1.514949   1.000000
   16        1.620592   1.000000
   17        1.686580   1.000000
   18        1.747752   1.000000
   19        1.867673   1.000000
   20        1.899271   1.000000
   21        1.930497   1.000000
   22        2.026586   1.000000
   23        2.064316   1.000000
   24        2.138977   1.000000
   25        2.202807   1.000000
   26        2.232640   1.000000
   27        2.306040   1.000000
   28        2.348896   1.000000
   29        2.422739   1.000000
   30        2.490178   1.000000
   31        2.530544   1.000000
   32        2.596372   1.000000
   33        2.625797   1.000000
   34        2.655288   1.000000
   35        2.720060   1.000000
   36        2.749429   1.000000
   37        2.829064   1.000000
   38        2.871199   1.000000
   39        2.918950   1.000000
   40        2.995378   1.000000
   41        3.041873   1.000000
   42        3.075576   1.000000
   43        3.181752   1.000000
   44        3.245756   1.000000
   45        3.278349   1.000000
   46        3.402514   1.000000
   47        3.564665   1.000000
   48        3.799895   1.000000
   49        4.525295   1.000000
   50        4.679479   1.000000
   51        4.802807   1.000000
   52        4.893797   1.000000
   53        5.237527   1.000000
   54        5.390653   1.000000
   55        5.791306   1.000000
   56        5.885946   1.000000
   57        8.945657   0.000000
   58        9.346849   0.000000
   59        9.530807   0.000000
   60        9.758032   0.000000
   61        9.854407   0.000000
   62       10.164531   0.000000
   63       11.067517   0.000000
   64       11.157170   0.000000
   65       11.432783   0.000000
   66       11.901379   0.000000
   67       12.028153   0.000000
   68       13.056643   0.000000
 
 -0.4210526E+00  0.0000000E+00  0.4210526E+00  0.7142857E-02
    1       -6.239336   1.000000
    2       -6.084395   1.000000
    3       -5.997584   1.000000
    4       -5.972865   1.000000
    5        0.636549   1.000000
    6        0.674261   1.000000
    7        0.762437   1.000000
    8        0.807827   1.000000
    9        0.881470   1.000000
   10        0.943732   1.000000
   11        1.126702   1.000000
   12        1.216995   1.000000
   13        1.358655   1.000000
   14        1.420571   1.000000
   15        1.501996   1.000000
   16        1.637550   1.000000
   17        1.675848   1.000000
   18        1.750105   1.000000
   19        1.858365   1.000000
   20        1.883108   1.000000
   21        1.933118   1.000000
   22        2.018961   1.000000
   23        2.062146   1.000000
   24        2.148801   1.000000
   25        2.224536   1.000000
   26        2.237468   1.000000
   27        2.313350   1.000000
   28        2.353372   1.000000
   29        2.416122   1.000000
   30        2.486994   1.000000
   31        2.520126   1.000000
   32        2.560863   1.000000
   33        2.627063   1.000000
   34        2.659108   1.000000
   35        2.719238   1.000000
   36        2.769967   1.000000
   37        2.823082   1.000000
   38        2.863901   1.000000
   39        2.914733   1.000000
   40        2.999010   1.000000
   41        3.023882   1.000000
   42        3.060061   1.000000
   43        3.199476   1.000000
   44        3.247022   1.000000
   45        3.271992   1.000000
   46        3.492411   1.000000
   47        3.540784   1.000000
   48        3.879690   1.000000
   49        4.419708   1.000000
   50        4.672779   1.000000
   51        4.808911   1.000000
   52        4.929116   1.000000
   53        5.216108   1.000000
   54        5.444907   1.000000
   55        5.828476   1.000000
   56        5.930733   1.000000
   57        8.847037   0.000000
   58        9.270461   0.000000
   59        9.640543   0.000000
   60        9.858247   0.000000
   61        9.902747   0.000000
   62       10.188991   0.000000
   63       11.002723   0.000000
   64       11.139513   0.000000
   65       11.496253   0.000000
   66       11.899635   0.000000
   67       12.036540   0.000000
   68       13.158927   0.000000
 
 -0.3947368E+00  0.0000000E+00  0.3947368E+00  0.7142857E-02
    1       -6.270756   1.000000
    2       -6.090501   1.000000
    3       -5.992107   1.000000
    4       -5.969286   1.000000
    5        0.637022   1.000000
    6        0.657172   1.000000
    7        0.758200   1.000000
    8        0.807064   1.000000
    9        0.901700   1.000000
   10        0.950832   1.000000
   11        1.115941   1.000000
   12        1.221577   1.000000
   13        1.349429   1.000000
   14        1.406339   1.000000
   15        1.492661   1.000000
   16        1.646565   1.000000
   17        1.670170   1.000000
   18        1.745580   1.000000
   19        1.842504   1.000000
   20        1.867349   1.000000
   21        1.943646   1.000000
   22        2.008148   1.000000
   23        2.062269   1.000000
   24        2.154972   1.000000
   25        2.237836   1.000000
   26        2.250081   1.000000
   27        2.313311   1.000000
   28        2.359061   1.000000
   29        2.419456   1.000000
   30        2.479071   1.000000
   31        2.512438   1.000000
   32        2.531098   1.000000
   33        2.621455   1.000000
   34        2.676071   1.000000
   35        2.712557   1.000000
   36        2.781859   1.000000
   37        2.815906   1.000000
   38        2.867179   1.000000
   39        2.906845   1.000000
   40        2.992364   1.000000
   41        3.022566   1.000000
   42        3.054023   1.000000
   43        3.200329   1.000000
   44        3.248511   1.000000
   45        3.283035   1.000000
   46        3.507416   1.000000
   47        3.611298   1.000000
   48        3.963375   1.000000
   49        4.320133   1.000000
   50        4.666890   1.000000
   51        4.797445   1.000000
   52        4.950534   1.000000
   53        5.198765   1.000000
   54        5.514960   1.000000
   55        5.876441   1.000000
   56        5.984511   1.000000
   57        8.752262   0.000000
   58        9.190711   0.000000
   59        9.745278   0.000000
   60        9.952891   0.000000
   61        9.986720   0.000000
   62       10.220277   0.000000
   63       10.942528   0.000000
   64       11.124334   0.000000
   65       11.580874   0.000000
   66       11.816193   0.000000
   67       12.128515   0.000000
   68       13.240103   0.000000
 
 -0.3684211E+00  0.0000000E+00  0.3684211E+00  0.7142857E-02
    1       -6.305830   1.000000
    2       -6.097751   1.000000
    3       -5.991209   1.000000
    4       -5.962936   1.000000
    5        0.634271   1.000000
    6        0.639931   1.000000
    7        0.756142   1.000000
    8        0.807679   1.000000
    9        0.912546   1.000000
   10        0.961088   1.000000
   11        1.108372   1.000000
   12        1.229971   1.000000
   13        1.339265   1.000000
   14        1.386470   1.000000
   15        1.486276   1.000000
   16        1.637261   1.000000
   17        1.676206   1.000000
   18        1.737233   1.000000
   19        1.821346   1.000000
   20        1.856569   1.000000
   21        1.947842   1.000000
   22        2.005761   1.000000
   23        2.065117   1.000000
   24        2.155012   1.000000
   25        2.227708   1.000000
   26        2.265663   1.000000
   27        2.316884   1.000000
   28        2.367647   1.000000
   29        2.418711   1.000000
   30        2.475877   1.000000
   31        2.497926   1.000000
   32        2.530134   1.000000
   33        2.617350   1.000000
   34        2.686263   1.000000
   35        2.709709   1.000000
   36        2.781170   1.000000
   37        2.823045   1.000000
   38        2.872173   1.000000
   39        2.897484   1.000000
   40        2.981667   1.000000
   41        3.033454   1.000000
   42        3.054489   1.000000
   43        3.194867   1.000000
   44        3.237145   1.000000
   45        3.311964   1.000000
   46        3.499633   1.000000
   47        3.720999   1.000000
   48        4.045562   1.000000
   49        4.234400   1.000000
   50        4.653785   1.000000
   51        4.769316   1.000000
   52        4.970306   1.000000
   53        5.193780   1.000000
   54        5.586288   1.000000
   55        5.934800   1.000000
   56        6.042896   1.000000
   57        8.652337   0.000000
   58        9.130433   0.000000
   59        9.822262   0.000000
   60       10.031548   0.000000
   61       10.110762   0.000000
   62       10.259783   0.000000
   63       10.903132   0.000000
   64       11.108051   0.000000
   65       11.679801   0.000000
   66       11.754942   0.000000
   67       12.198464   0.000000
   68       13.268638   0.000000
 
 -0.3421053E+00  0.0000000E+00  0.3421053E+00  0.7142857E-02
    1       -6.343141   1.000000
    2       -6.105936   1.000000
    3       -5.993111   1.000000
    4       -5.956149   1.000000
    5        0.609901   1.000000
    6        0.642510   1.000000
    7        0.755120   1.000000
    8        0.809821   1.000000
    9        0.909383   1.000000
   10        0.974982   1.000000
   11        1.105769   1.000000
   12        1.240557   1.000000
   13        1.330028   1.000000
   14        1.364150   1.000000
   15        1.482427   1.000000
   16        1.615941   1.000000
   17        1.685514   1.000000
   18        1.728722   1.000000
   19        1.798185   1.000000
   20        1.850316   1.000000
   21        1.934353   1.000000
   22        2.020039   1.000000
   23        2.068830   1.000000
   24        2.150562   1.000000
   25        2.201003   1.000000
   26        2.267425   1.000000
   27        2.332668   1.000000
   28        2.370957   1.000000
   29        2.415547   1.000000
   30        2.469242   1.000000
   31        2.502689   1.000000
   32        2.544072   1.000000
   33        2.616536   1.000000
   34        2.681829   1.000000
   35        2.718997   1.000000
   36        2.777723   1.000000
   37        2.837382   1.000000
   38        2.878117   1.000000
   39        2.889375   1.000000
   40        2.977204   1.000000
   41        3.033658   1.000000
   42        3.069352   1.000000
   43        3.190463   1.000000
   44        3.224919   1.000000
   45        3.339595   1.000000
   46        3.501441   1.000000
   47        3.835593   1.000000
   48        4.087928   1.000000
   49        4.203000   1.000000
   50        4.623545   1.000000
   51        4.730548   1.000000
   52        4.999601   1.000000
   53        5.204093   1.000000
   54        5.647924   1.000000
   55        6.003443   1.000000
   56        6.102766   1.000000
   57        8.535648   0.000000
   58        9.105846   0.000000
   59        9.858638   0.000000
   60       10.104594   0.000000
   61       10.238064   0.000000
   62       10.323787   0.000000
   63       10.894398   0.000000
   64       11.092767   0.000000
   65       11.694968   0.000000
   66       11.827640   0.000000
   67       12.216037   0.000000
   68       13.229460   0.000000
 
 -0.3157895E+00  0.0000000E+00  0.3157895E+00  0.7142857E-02
    1       -6.381583   1.000000
    2       -6.114819   1.000000
    3       -5.996422   1.000000
    4       -5.950454   1.000000
    5        0.585087   1.000000
    6        0.644132   1.000000
    7        0.753475   1.000000
    8        0.814423   1.000000
    9        0.896659   1.000000
   10        0.987227   1.000000
   11        1.107189   1.000000
   12        1.248037   1.000000
   13        1.320858   1.000000
   14        1.347660   1.000000
   15        1.480666   1.000000
   16        1.592036   1.000000
   17        1.688610   1.000000
   18        1.722806   1.000000
   19        1.774614   1.000000
   20        1.847861   1.000000
   21        1.915531   1.000000
   22        2.034114   1.000000
   23        2.071877   1.000000
   24        2.141794   1.000000
   25        2.169195   1.000000
   26        2.266034   1.000000
   27        2.342075   1.000000
   28        2.366962   1.000000
   29        2.418986   1.000000
   30        2.471453   1.000000
   31        2.514555   1.000000
   32        2.559710   1.000000
   33        2.621278   1.000000
   34        2.680539   1.000000
   35        2.724931   1.000000
   36        2.775392   1.000000
   37        2.853392   1.000000
   38        2.881636   1.000000
   39        2.891207   1.000000
   40        2.977744   1.000000
   41        3.026923   1.000000
   42        3.091648   1.000000
   43        3.184202   1.000000
   44        3.217464   1.000000
   45        3.364734   1.000000
   46        3.514335   1.000000
   47        3.948358   1.000000
   48        4.046732   1.000000
   49        4.274354   1.000000
   50        4.575107   1.000000
   51        4.682899   1.000000
   52        5.044511   1.000000
   53        5.230047   1.000000
   54        5.695249   1.000000
   55        6.080428   1.000000
   56        6.162099   1.000000
   57        8.397310   0.000000
   58        9.123099   0.000000
   59        9.843433   0.000000
   60       10.156517   0.000000
   61       10.349072   0.000000
   62       10.438629   0.000000
   63       10.914835   0.000000
   64       11.088271   0.000000
   65       11.694365   0.000000
   66       11.965647   0.000000
   67       12.163981   0.000000
   68       13.137225   0.000000
 
 -0.2894737E+00  0.0000000E+00  0.2894737E+00  0.7142857E-02
    1       -6.420229   1.000000
    2       -6.124150   1.000000
    3       -6.000549   1.000000
    4       -5.946324   1.000000
    5        0.561771   1.000000
    6        0.642687   1.000000
    7        0.749070   1.000000
    8        0.822382   1.000000
    9        0.879366   1.000000
   10        0.996209   1.000000
   11        1.108865   1.000000
   12        1.245357   1.000000
   13        1.305195   1.000000
   14        1.349795   1.000000
   15        1.481514   1.000000
   16        1.570484   1.000000
   17        1.686880   1.000000
   18        1.715369   1.000000
   19        1.753138   1.000000
   20        1.844259   1.000000
   21        1.904890   1.000000
   22        2.036248   1.000000
   23        2.069790   1.000000
   24        2.114004   1.000000
   25        2.162184   1.000000
   26        2.265398   1.000000
   27        2.333965   1.000000
   28        2.366178   1.000000
   29        2.430658   1.000000
   30        2.483318   1.000000
   31        2.520341   1.000000
   32        2.571516   1.000000
   33        2.632716   1.000000
   34        2.687334   1.000000
   35        2.725179   1.000000
   36        2.774673   1.000000
   37        2.868457   1.000000
   38        2.876286   1.000000
   39        2.910602   1.000000
   40        2.980600   1.000000
   41        3.019388   1.000000
   42        3.114325   1.000000
   43        3.174286   1.000000
   44        3.214049   1.000000
   45        3.392780   1.000000
   46        3.537890   1.000000
   47        3.978150   1.000000
   48        4.076931   1.000000
   49        4.371648   1.000000
   50        4.515860   1.000000
   51        4.628232   1.000000
   52        5.096469   1.000000
   53        5.278763   1.000000
   54        5.728626   1.000000
   55        6.161669   1.000000
   56        6.219822   1.000000
   57        8.240302   0.000000
   58        9.176442   0.000000
   59        9.776482   0.000000
   60       10.182983   0.000000
   61       10.461248   0.000000
   62       10.579709   0.000000
   63       10.939289   0.000000
   64       11.120085   0.000000
   65       11.731176   0.000000
   66       11.990015   0.000000
   67       12.165339   0.000000
   68       13.017750   0.000000
 
 -0.2631579E+00  0.0000000E+00  0.2631579E+00  0.7142857E-02
    1       -6.458266   1.000000
    2       -6.133668   1.000000
    3       -6.005173   1.000000
    4       -5.943786   1.000000
    5        0.541080   1.000000
    6        0.637339   1.000000
    7        0.740081   1.000000
    8        0.829985   1.000000
    9        0.864556   1.000000
   10        1.003685   1.000000
   11        1.106927   1.000000
   12        1.231140   1.000000
   13        1.289336   1.000000
   14        1.360395   1.000000
   15        1.488033   1.000000
   16        1.553976   1.000000
   17        1.684217   1.000000
   18        1.702169   1.000000
   19        1.738375   1.000000
   20        1.831381   1.000000
   21        1.911762   1.000000
   22        2.024600   1.000000
   23        2.058331   1.000000
   24        2.086781   1.000000
   25        2.167211   1.000000
   26        2.266738   1.000000
   27        2.317406   1.000000
   28        2.370901   1.000000
   29        2.448133   1.000000
   30        2.494178   1.000000
   31        2.517973   1.000000
   32        2.584619   1.000000
   33        2.643039   1.000000
   34        2.700397   1.000000
   35        2.723436   1.000000
   36        2.777828   1.000000
   37        2.868988   1.000000
   38        2.884828   1.000000
   39        2.932513   1.000000
   40        2.982465   1.000000
   41        3.014499   1.000000
   42        3.130306   1.000000
   43        3.169134   1.000000
   44        3.207939   1.000000
   45        3.425406   1.000000
   46        3.571294   1.000000
   47        3.943679   1.000000
   48        4.175312   1.000000
   49        4.449477   1.000000
   50        4.475390   1.000000
   51        4.576671   1.000000
   52        5.141133   1.000000
   53        5.362215   1.000000
   54        5.750512   1.000000
   55        6.241748   1.000000
   56        6.276388   1.000000
   57        8.070158   0.000000
   58        9.248991   0.000000
   59        9.676126   0.000000
   60       10.184181   0.000000
   61       10.578285   0.000000
   62       10.720579   0.000000
   63       10.946914   0.000000
   64       11.203546   0.000000
   65       11.780867   0.000000
   66       11.837454   0.000000
   67       12.328581   0.000000
   68       12.885382   0.000000
 
 -0.2368421E+00  0.0000000E+00  0.2368421E+00  0.7142857E-02
    1       -6.494953   1.000000
    2       -6.143119   1.000000
    3       -6.010071   1.000000
    4       -5.942675   1.000000
    5        0.523686   1.000000
    6        0.628463   1.000000
    7        0.726023   1.000000
    8        0.820165   1.000000
    9        0.869941   1.000000
   10        1.011569   1.000000
   11        1.099664   1.000000
   12        1.210570   1.000000
   13        1.275793   1.000000
   14        1.364126   1.000000
   15        1.504233   1.000000
   16        1.544069   1.000000
   17        1.672842   1.000000
   18        1.693341   1.000000
   19        1.733511   1.000000
   20        1.813385   1.000000
   21        1.928732   1.000000
   22        2.000457   1.000000
   23        2.044810   1.000000
   24        2.072875   1.000000
   25        2.166975   1.000000
   26        2.267270   1.000000
   27        2.305751   1.000000
   28        2.377383   1.000000
   29        2.465686   1.000000
   30        2.495807   1.000000
   31        2.517990   1.000000
   32        2.599462   1.000000
   33        2.646954   1.000000
   34        2.714680   1.000000
   35        2.724296   1.000000
   36        2.785999   1.000000
   37        2.864424   1.000000
   38        2.899465   1.000000
   39        2.951458   1.000000
   40        2.980347   1.000000
   41        3.014613   1.000000
   42        3.129728   1.000000
   43        3.176094   1.000000
   44        3.201748   1.000000
   45        3.455377   1.000000
   46        3.607476   1.000000
   47        3.937614   1.000000
   48        4.237572   1.000000
   49        4.398549   1.000000
   50        4.526245   1.000000
   51        4.589284   1.000000
   52        5.182107   1.000000
   53        5.478954   1.000000
   54        5.763573   1.000000
   55        6.310806   1.000000
   56        6.337822   1.000000
   57        7.891927   0.000000
   58        9.292428   0.000000
   59        9.592688   0.000000
   60       10.155661   0.000000
   61       10.687497   0.000000
   62       10.836202   0.000000
   63       10.964486   0.000000
   64       11.300672   0.000000
   65       11.610018   0.000000
   66       11.935682   0.000000
   67       12.505306   0.000000
   68       12.754776   0.000000
 
 -0.2105263E+00  0.0000000E+00  0.2105263E+00  0.7142857E-02
    1       -6.529622   1.000000
    2       -6.152261   1.000000
    3       -6.015052   1.000000
    4       -5.942743   1.000000
    5        0.509891   1.000000
    6        0.617189   1.000000
    7        0.707746   1.000000
    8        0.797766   1.000000
    9        0.889803   1.000000
   10        1.020655   1.000000
   11        1.086566   1.000000
   12        1.190327   1.000000
   13        1.262086   1.000000
   14        1.356070   1.000000
   15        1.523423   1.000000
   16        1.546094   1.000000
   17        1.652473   1.000000
   18        1.690928   1.000000
   19        1.739122   1.000000
   20        1.797332   1.000000
   21        1.938302   1.000000
   22        1.981637   1.000000
   23        2.036002   1.000000
   24        2.066494   1.000000
   25        2.160470   1.000000
   26        2.258090   1.000000
   27        2.308275   1.000000
   28        2.383391   1.000000
   29        2.467278   1.000000
   30        2.500395   1.000000
   31        2.525294   1.000000
   32        2.608028   1.000000
   33        2.648497   1.000000
   34        2.721797   1.000000
   35        2.735597   1.000000
   36        2.798559   1.000000
   37        2.860661   1.000000
   38        2.915174   1.000000
   39        2.965418   1.000000
   40        2.975280   1.000000
   41        3.018205   1.000000
   42        3.122294   1.000000
   43        3.169933   1.000000
   44        3.214977   1.000000
   45        3.476697   1.000000
   46        3.626605   1.000000
   47        3.979769   1.000000
   48        4.225160   1.000000
   49        4.352056   1.000000
   50        4.566655   1.000000
   51        4.665706   1.000000
   52        5.237438   1.000000
   53        5.617915   1.000000
   54        5.770245   1.000000
   55        6.363006   1.000000
   56        6.407364   1.000000
   57        7.709760   0.000000
   58        9.214937   0.000000
   59        9.615141   0.000000
   60       10.094151   0.000000
   61       10.764114   0.000000
   62       10.883514   0.000000
   63       11.016248   0.000000
   64       11.307101   0.000000
   65       11.573048   0.000000
   66       12.085401   0.000000
   67       12.614404   0.000000
   68       12.706435   0.000000
 
 -0.1842105E+00  0.0000000E+00  0.1842105E+00  0.7142857E-02
    1       -6.561667   1.000000
    2       -6.160872   1.000000
    3       -6.019939   1.000000
    4       -5.943703   1.000000
    5        0.499649   1.000000
    6        0.604888   1.000000
    7        0.686740   1.000000
    8        0.773251   1.000000
    9        0.912575   1.000000
   10        1.029984   1.000000
   11        1.067723   1.000000
   12        1.175318   1.000000
   13        1.247787   1.000000
   14        1.340047   1.000000
   15        1.528166   1.000000
   16        1.567682   1.000000
   17        1.631030   1.000000
   18        1.691076   1.000000
   19        1.748033   1.000000
   20        1.788862   1.000000
   21        1.924535   1.000000
   22        1.986231   1.000000
   23        2.033863   1.000000
   24        2.066092   1.000000
   25        2.152878   1.000000
   26        2.243354   1.000000
   27        2.316828   1.000000
   28        2.388815   1.000000
   29        2.456830   1.000000
   30        2.505223   1.000000
   31        2.537794   1.000000
   32        2.606459   1.000000
   33        2.643700   1.000000
   34        2.735855   1.000000
   35        2.750101   1.000000
   36        2.814024   1.000000
   37        2.856831   1.000000
   38        2.931862   1.000000
   39        2.966579   1.000000
   40        2.977844   1.000000
   41        3.023115   1.000000
   42        3.116369   1.000000
   43        3.156072   1.000000
   44        3.238416   1.000000
   45        3.489410   1.000000
   46        3.620574   1.000000
   47        4.056906   1.000000
   48        4.169872   1.000000
   49        4.309990   1.000000
   50        4.651321   1.000000
   51        4.725063   1.000000
   52        5.322260   1.000000
   53        5.766490   1.000000
   54        5.775594   1.000000
   55        6.407820   1.000000
   56        6.474120   1.000000
   57        7.527270   0.000000
   58        9.051027   0.000000
   59        9.699259   0.000000
   60       10.003354   0.000000
   61       10.747352   0.000000
   62       10.847706   0.000000
   63       11.075458   0.000000
   64       11.334708   0.000000
   65       11.684016   0.000000
   66       12.228805   0.000000
   67       12.578176   0.000000
   68       12.833148   0.000000
 
 -0.1578947E+00  0.0000000E+00  0.1578947E+00  0.7142857E-02
    1       -6.590548   1.000000
    2       -6.168751   1.000000
    3       -6.024561   1.000000
    4       -5.945262   1.000000
    5        0.492558   1.000000
    6        0.592863   1.000000
    7        0.664492   1.000000
    8        0.750242   1.000000
    9        0.932824   1.000000
   10        1.030070   1.000000
   11        1.053727   1.000000
   12        1.166896   1.000000
   13        1.235080   1.000000
   14        1.320887   1.000000
   15        1.529027   1.000000
   16        1.586548   1.000000
   17        1.610575   1.000000
   18        1.695597   1.000000
   19        1.751229   1.000000
   20        1.790413   1.000000
   21        1.910983   1.000000
   22        1.993810   1.000000
   23        2.039465   1.000000
   24        2.072249   1.000000
   25        2.149846   1.000000
   26        2.228651   1.000000
   27        2.322070   1.000000
   28        2.394831   1.000000
   29        2.447824   1.000000
   30        2.503245   1.000000
   31        2.547207   1.000000
   32        2.601329   1.000000
   33        2.626018   1.000000
   34        2.753293   1.000000
   35        2.770060   1.000000
   36        2.829973   1.000000
   37        2.853939   1.000000
   38        2.947004   1.000000
   39        2.960622   1.000000
   40        2.987184   1.000000
   41        3.029793   1.000000
   42        3.113978   1.000000
   43        3.144488   1.000000
   44        3.263032   1.000000
   45        3.494807   1.000000
   46        3.600684   1.000000
   47        4.079848   1.000000
   48        4.123171   1.000000
   49        4.328090   1.000000
   50        4.719342   1.000000
   51        4.791174   1.000000
   52        5.437664   1.000000
   53        5.774288   1.000000
   54        5.924185   1.000000
   55        6.449773   1.000000
   56        6.533464   1.000000
   57        7.348040   0.000000
   58        8.859295   0.000000
   59        9.754861   0.000000
   60        9.912273   0.000000
   61       10.551401   0.000000
   62       10.869258   0.000000
   63       11.165839   0.000000
   64       11.439155   0.000000
   65       11.807410   0.000000
   66       12.275295   0.000000
   67       12.683262   0.000000
   68       12.909414   0.000000
 
 -0.1315789E+00  0.0000000E+00  0.1315789E+00  0.7142857E-02
    1       -6.615788   1.000000
    2       -6.175722   1.000000
    3       -6.028766   1.000000
    4       -5.947135   1.000000
    5        0.487939   1.000000
    6        0.582157   1.000000
    7        0.642236   1.000000
    8        0.731713   1.000000
    9        0.939811   1.000000
   10        1.015729   1.000000
   11        1.059845   1.000000
   12        1.162794   1.000000
   13        1.226646   1.000000
   14        1.301963   1.000000
   15        1.529280   1.000000
   16        1.584341   1.000000
   17        1.602307   1.000000
   18        1.698790   1.000000
   19        1.752943   1.000000
   20        1.792494   1.000000
   21        1.913053   1.000000
   22        1.998485   1.000000
   23        2.050246   1.000000
   24        2.083076   1.000000
   25        2.155822   1.000000
   26        2.216225   1.000000
   27        2.320469   1.000000
   28        2.402150   1.000000
   29        2.442959   1.000000
   30        2.497140   1.000000
   31        2.547373   1.000000
   32        2.586664   1.000000
   33        2.611717   1.000000
   34        2.760530   1.000000
   35        2.789090   1.000000
   36        2.844790   1.000000
   37        2.857974   1.000000
   38        2.949520   1.000000
   39        2.965680   1.000000
   40        3.000289   1.000000
   41        3.040542   1.000000
   42        3.115222   1.000000
   43        3.137348   1.000000
   44        3.287062   1.000000
   45        3.492849   1.000000
   46        3.577396   1.000000
   47        4.018388   1.000000
   48        4.082383   1.000000
   49        4.436788   1.000000
   50        4.734220   1.000000
   51        4.894946   1.000000
   52        5.568508   1.000000
   53        5.782496   1.000000
   54        6.071712   1.000000
   55        6.492592   1.000000
   56        6.583440   1.000000
   57        7.176161   0.000000
   58        8.659563   0.000000
   59        9.683210   0.000000
   60        9.902340   0.000000
   61       10.326734   0.000000
   62       10.921266   0.000000
   63       11.260072   0.000000
   64       11.552776   0.000000
   65       11.907276   0.000000
   66       12.264970   0.000000
   67       12.875786   0.000000
   68       12.990893   0.000000
 
 -0.1052632E+00  0.0000000E+00  0.1052632E+00  0.7142857E-02
    1       -6.636998   1.000000
    2       -6.181631   1.000000
    3       -6.032412   1.000000
    4       -5.949059   1.000000
    5        0.484990   1.000000
    6        0.573382   1.000000
    7        0.621120   1.000000
    8        0.720368   1.000000
    9        0.919269   1.000000
   10        1.019254   1.000000
   11        1.068944   1.000000
   12        1.160162   1.000000
   13        1.222929   1.000000
   14        1.286153   1.000000
   15        1.527335   1.000000
   16        1.567516   1.000000
   17        1.605354   1.000000
   18        1.694330   1.000000
   19        1.753387   1.000000
   20        1.792166   1.000000
   21        1.931064   1.000000
   22        2.003348   1.000000
   23        2.061567   1.000000
   24        2.098070   1.000000
   25        2.171256   1.000000
   26        2.208557   1.000000
   27        2.313089   1.000000
   28        2.407238   1.000000
   29        2.441182   1.000000
   30        2.489275   1.000000
   31        2.537706   1.000000
   32        2.560150   1.000000
   33        2.611563   1.000000
   34        2.755015   1.000000
   35        2.796738   1.000000
   36        2.854974   1.000000
   37        2.871429   1.000000
   38        2.949013   1.000000
   39        2.975465   1.000000
   40        3.016730   1.000000
   41        3.058626   1.000000
   42        3.121395   1.000000
   43        3.134529   1.000000
   44        3.309650   1.000000
   45        3.481878   1.000000
   46        3.556762   1.000000
   47        3.952375   1.000000
   48        4.027081   1.000000
   49        4.571321   1.000000
   50        4.731158   1.000000
   51        5.004279   1.000000
   52        5.674148   1.000000
   53        5.826108   1.000000
   54        6.198779   1.000000
   55        6.541909   1.000000
   56        6.622219   1.000000
   57        7.017143  -0.000000
   58        8.463317   0.000000
   59        9.553247   0.000000
   60        9.888737   0.000000
   61       10.144430   0.000000
   62       10.989767   0.000000
   63       11.344250   0.000000
   64       11.653985   0.000000
   65       11.969538   0.000000
   66       12.276244   0.000000
   67       12.987475   0.000000
   68       13.207745   0.000000
 
 -0.7894737E-01  0.0000000E+00  0.7894737E-01  0.7142857E-02
    1       -6.653846   1.000000
    2       -6.186356   1.000000
    3       -6.035379   1.000000
    4       -5.950805   1.000000
    5        0.483048   1.000000
    6        0.566647   1.000000
    7        0.602473   1.000000
    8        0.718129   1.000000
    9        0.882821   1.000000
   10        1.034666   1.000000
   11        1.076463   1.000000
   12        1.157949   1.000000
   13        1.220544   1.000000
   14        1.276744   1.000000
   15        1.520162   1.000000
   16        1.555711   1.000000
   17        1.608290   1.000000
   18        1.683952   1.000000
   19        1.749508   1.000000
   20        1.792056   1.000000
   21        1.954002   1.000000
   22        2.012582   1.000000
   23        2.069029   1.000000
   24        2.117110   1.000000
   25        2.191255   1.000000
   26        2.211511   1.000000
   27        2.303061   1.000000
   28        2.399828   1.000000
   29        2.442340   1.000000
   30        2.480895   1.000000
   31        2.514915   1.000000
   32        2.548755   1.000000
   33        2.612287   1.000000
   34        2.737113   1.000000
   35        2.802925   1.000000
   36        2.856666   1.000000
   37        2.884374   1.000000
   38        2.954976   1.000000
   39        2.983184   1.000000
   40        3.030644   1.000000
   41        3.079129   1.000000
   42        3.133897   1.000000
   43        3.141989   1.000000
   44        3.329903   1.000000
   45        3.460323   1.000000
   46        3.541732   1.000000
   47        3.893170   1.000000
   48        3.974592   1.000000
   49        4.693680   1.000000
   50        4.728338   1.000000
   51        5.106226   1.000000
   52        5.710532   1.000000
   53        5.936717   1.000000
   54        6.292411   1.000000
   55        6.600625   1.000000
   56        6.647238   1.000000
   57        6.880304  -0.000000
   58        8.282187   0.000000
   59        9.432096   0.000000
   60        9.776936   0.000000
   61       10.069197   0.000000
   62       11.060688   0.000000
   63       11.412929   0.000000
   64       11.733474   0.000000
   65       12.004303   0.000000
   66       12.317320   0.000000
   67       13.073578   0.000000
   68       13.388699   0.000000
 
 -0.5263158E-01  0.0000000E+00  0.5263158E-01  0.7142857E-02
    1       -6.666065   1.000000
    2       -6.189798   1.000000
    3       -6.037570   1.000000
    4       -5.952190   1.000000
    5        0.481773   1.000000
    6        0.561759   1.000000
    7        0.587803   1.000000
    8        0.725646   1.000000
    9        0.843605   1.000000
   10        1.050603   1.000000
   11        1.081572   1.000000
   12        1.156290   1.000000
   13        1.215891   1.000000
   14        1.275246   1.000000
   15        1.508495   1.000000
   16        1.550983   1.000000
   17        1.612061   1.000000
   18        1.671181   1.000000
   19        1.744958   1.000000
   20        1.791210   1.000000
   21        1.969033   1.000000
   22        2.028467   1.000000
   23        2.074822   1.000000
   24        2.131908   1.000000
   25        2.209625   1.000000
   26        2.233426   1.000000
   27        2.292641   1.000000
   28        2.376192   1.000000
   29        2.438378   1.000000
   30        2.468825   1.000000
   31        2.502703   1.000000
   32        2.548689   1.000000
   33        2.610418   1.000000
   34        2.715818   1.000000
   35        2.808808   1.000000
   36        2.854484   1.000000
   37        2.891090   1.000000
   38        2.964277   1.000000
   39        2.988711   1.000000
   40        3.040670   1.000000
   41        3.089026   1.000000
   42        3.134866   1.000000
   43        3.182851   1.000000
   44        3.346511   1.000000
   45        3.429500   1.000000
   46        3.531944   1.000000
   47        3.845862   1.000000
   48        3.932593   1.000000
   49        4.709997   1.000000
   50        4.808410   1.000000
   51        5.191134   1.000000
   52        5.718132   1.000000
   53        6.058477   1.000000
   54        6.352874   1.000000
   55        6.626242   1.000000
   56        6.679330   1.000000
   57        6.786221  -0.000000
   58        8.130805   0.000000
   59        9.342546   0.000000
   60        9.627898   0.000000
   61       10.053944   0.000000
   62       11.119116   0.000000
   63       11.463280   0.000000
   64       11.786988   0.000000
   65       12.032211   0.000000
   66       12.368292   0.000000
   67       13.146304   0.000000
   68       13.382648   0.000000
 
 -0.2631579E-01  0.0000000E+00  0.2631579E-01  0.7142857E-02
    1       -6.673467   1.000000
    2       -6.191892   1.000000
    3       -6.038913   1.000000
    4       -5.953074   1.000000
    5        0.481052   1.000000
    6        0.558623   1.000000
    7        0.578481   1.000000
    8        0.741819   1.000000
    9        0.807437   1.000000
   10        1.062329   1.000000
   11        1.084275   1.000000
   12        1.155274   1.000000
   13        1.210573   1.000000
   14        1.277857   1.000000
   15        1.498423   1.000000
   16        1.549648   1.000000
   17        1.616525   1.000000
   18        1.659798   1.000000
   19        1.742106   1.000000
   20        1.789918   1.000000
   21        1.975042   1.000000
   22        2.042209   1.000000
   23        2.081046   1.000000
   24        2.139021   1.000000
   25        2.231242   1.000000
   26        2.263401   1.000000
   27        2.282306   1.000000
   28        2.345979   1.000000
   29        2.417730   1.000000
   30        2.466915   1.000000
   31        2.501489   1.000000
   32        2.554245   1.000000
   33        2.605880   1.000000
   34        2.699327   1.000000
   35        2.812857   1.000000
   36        2.852045   1.000000
   37        2.893714   1.000000
   38        2.971748   1.000000
   39        2.992143   1.000000
   40        3.047146   1.000000
   41        3.091998   1.000000
   42        3.135417   1.000000
   43        3.229339   1.000000
   44        3.357491   1.000000
   45        3.395100   1.000000
   46        3.526236   1.000000
   47        3.815026   1.000000
   48        3.905624   1.000000
   49        4.704670   1.000000
   50        4.877027   1.000000
   51        5.248406   1.000000
   52        5.720211   1.000000
   53        6.147205   1.000000
   54        6.395769   1.000000
   55        6.580895   1.000000
   56        6.725711   1.006945
   57        6.753874   0.017041
   58        8.027488   0.000000
   59        9.294616   0.000000
   60        9.512627   0.000000
   61       10.049816   0.000000
   62       11.155949   0.000000
   63       11.493651   0.000000
   64       11.816441   0.000000
   65       12.055858   0.000000
   66       12.409875   0.000000
   67       13.193063   0.000000
   68       13.332180   0.000000
 
  0.0000000E+00  0.0000000E+00  0.0000000E+00  0.7142857E-02
    1       -6.675938   1.000000
    2       -6.192594   1.000000
    3       -6.039365   1.000000
    4       -5.953377   1.000000
    5        0.480823   1.000000
    6        0.557495   1.000000
    7        0.575313   1.000000
    8        0.756945   1.000000
    9        0.785527   1.000000
   10        1.066734   1.000000
   11        1.085041   1.000000
   12        1.154915   1.000000
   13        1.208288   1.000000
   14        1.279414   1.000000
   15        1.494546   1.000000
   16        1.549385   1.000000
   17        1.618960   1.000000
   18        1.654800   1.000000
   19        1.741191   1.000000
   20        1.789319   1.000000
   21        1.976536   1.000000
   22        2.046762   1.000000
   23        2.084216   1.000000
   24        2.141112   1.000000
   25        2.247120   1.000000
   26        2.270126   1.000000
   27        2.284890   1.000000
   28        2.327705   1.000000
   29        2.405547   1.000000
   30        2.467907   1.000000
   31        2.501523   1.000000
   32        2.558252   1.000000
   33        2.602778   1.000000
   34        2.693180   1.000000
   35        2.814277   1.000000
   36        2.851082   1.000000
   37        2.894354   1.000000
   38        2.974474   1.000000
   39        2.993353   1.000000
   40        3.049457   1.000000
   41        3.092643   1.000000
   42        3.135575   1.000000
   43        3.253583   1.000000
   44        3.360539   1.000000
   45        3.376564   1.000000
   46        3.524323   1.000000
   47        3.804270   1.000000
   48        3.896345   1.000000
   49        4.702612   1.000000
   50        4.901249   1.000000
   51        5.268768   1.000000
   52        5.720781   1.000000
   53        6.178983   1.000000
   54        6.419810   1.000000
   55        6.547195   1.000000
   56        6.738367   0.983958
   57        6.754814  -0.005378
   58        7.990342   0.000000
   59        9.282177   0.000000
   60        9.467725   0.000000
   61       10.048692   0.000000
   62       11.168323   0.000000
   63       11.503710   0.000000
   64       11.825789   0.000000
   65       12.065479   0.000000
   66       12.426213   0.000000
   67       13.208691   0.000000
   68       13.311532   0.000000
 
  0.0000000E+00  0.0000000E+00  0.0000000E+00  0.7142857E-02
    1       -6.675938   1.000000
    2       -6.192594   1.000000
    3       -6.039365   1.000000
    4       -5.953377   1.000000
    5        0.480823   1.000000
    6        0.557495   1.000000
    7        0.575313   1.000000
    8        0.756945   1.000000
    9        0.785527   1.000000
   10        1.066734   1.000000
   11        1.085041   1.000000
   12        1.154915   1.000000
   13        1.208288   1.000000
   14        1.279414   1.000000
   15        1.494546   1.000000
   16        1.549385   1.000000
   17        1.618960   1.000000
   18        1.654800   1.000000
   19        1.741191   1.000000
   20        1.789319   1.000000
   21        1.976536   1.000000
   22        2.046762   1.000000
   23        2.084216   1.000000
   24        2.141112   1.000000
   25        2.247120   1.000000
   26        2.270126   1.000000
   27        2.284890   1.000000
   28        2.327705   1.000000
   29        2.405547   1.000000
   30        2.467907   1.000000
   31        2.501523   1.000000
   32        2.558252   1.000000
   33        2.602778   1.000000
   34        2.693180   1.000000
   35        2.814277   1.000000
   36        2.851082   1.000000
   37        2.894354   1.000000
   38        2.974474   1.000000
   39        2.993353   1.000000
   40        3.049457   1.000000
   41        3.092643   1.000000
   42        3.135575   1.000000
   43        3.253583   1.000000
   44        3.360539   1.000000
   45        3.376564   1.000000
   46        3.524323   1.000000
   47        3.804270   1.000000
   48        3.896345   1.000000
   49        4.702612   1.000000
   50        4.901249   1.000000
   51        5.268768   1.000000
   52        5.720781   1.000000
   53        6.178983   1.000000
   54        6.419810   1.000000
   55        6.547195   1.000000
   56        6.738367   0.983957
   57        6.754814  -0.005378
   58        7.990342   0.000000
   59        9.282177   0.000000
   60        9.467725   0.000000
   61       10.048692   0.000000
   62       11.168323   0.000000
   63       11.503709   0.000000
   64       11.825789   0.000000
   65       12.065479   0.000000
   66       12.426214   0.000000
   67       13.208686   0.000000
   68       13.312004   0.000000
 
  0.2631579E-01 -0.2631579E-01  0.0000000E+00  0.7142857E-02
    1       -6.672333   1.000000
    2       -6.191940   1.000000
    3       -6.039666   1.000000
    4       -5.953534   1.000000
    5        0.478880   1.000000
    6        0.555457   1.000000
    7        0.583917   1.000000
    8        0.724528   1.000000
    9        0.824626   1.000000
   10        1.062287   1.000000
   11        1.082649   1.000000
   12        1.153533   1.000000
   13        1.212809   1.000000
   14        1.280932   1.000000
   15        1.498965   1.000000
   16        1.548522   1.000000
   17        1.613696   1.000000
   18        1.663177   1.000000
   19        1.732805   1.000000
   20        1.801353   1.000000
   21        1.973544   1.000000
   22        2.044948   1.000000
   23        2.069513   1.000000
   24        2.130606   1.000000
   25        2.236948   1.000000
   26        2.277856   1.000000
   27        2.283055   1.000000
   28        2.335433   1.000000
   29        2.412079   1.000000
   30        2.468643   1.000000
   31        2.510034   1.000000
   32        2.552053   1.000000
   33        2.607205   1.000000
   34        2.697343   1.000000
   35        2.812358   1.000000
   36        2.850297   1.000000
   37        2.893411   1.000000
   38        2.970979   1.000000
   39        2.992070   1.000000
   40        3.046559   1.000000
   41        3.091495   1.000000
   42        3.130966   1.000000
   43        3.245133   1.000000
   44        3.354649   1.000000
   45        3.391016   1.000000
   46        3.530086   1.000000
   47        3.773726   1.000000
   48        3.943487   1.000000
   49        4.700351   1.000000
   50        4.893992   1.000000
   51        5.245168   1.000000
   52        5.717078   1.000000
   53        6.168340   1.000000
   54        6.356233   1.000000
   55        6.603332   1.000000
   56        6.723049   1.002604
   57        6.762770  -0.020181
   58        8.033726   0.000000
   59        9.275742   0.000000
   60        9.490853   0.000000
   61       10.071697   0.000000
   62       11.158404   0.000000
   63       11.486859   0.000000
   64       11.814135   0.000000
   65       12.038778   0.000000
   66       12.392402   0.000000
   67       13.194155   0.000000
   68       13.339764   0.000000
 
  0.5263158E-01 -0.5263158E-01  0.0000000E+00  0.7142857E-02
    1       -6.661570   1.000000
    2       -6.189988   1.000000
    3       -6.040538   1.000000
    4       -5.954006   1.000000
    5        0.474325   1.000000
    6        0.553902   1.000000
    7        0.602045   1.000000
    8        0.693539   1.000000
    9        0.875138   1.000000
   10        1.051799   1.000000
   11        1.074133   1.000000
   12        1.151452   1.000000
   13        1.226290   1.000000
   14        1.284208   1.000000
   15        1.509213   1.000000
   16        1.545991   1.000000
   17        1.607329   1.000000
   18        1.676063   1.000000
   19        1.724976   1.000000
   20        1.824373   1.000000
   21        1.963132   1.000000
   22        2.015446   1.000000
   23        2.059081   1.000000
   24        2.104795   1.000000
   25        2.222693   1.000000
   26        2.273458   1.000000
   27        2.289147   1.000000
   28        2.358477   1.000000
   29        2.421506   1.000000
   30        2.466931   1.000000
   31        2.523272   1.000000
   32        2.553472   1.000000
   33        2.615547   1.000000
   34        2.708374   1.000000
   35        2.804735   1.000000
   36        2.849339   1.000000
   37        2.890604   1.000000
   38        2.961471   1.000000
   39        2.987780   1.000000
   40        3.038418   1.000000
   41        3.086664   1.000000
   42        3.119005   1.000000
   43        3.231204   1.000000
   44        3.339398   1.000000
   45        3.424352   1.000000
   46        3.544257   1.000000
   47        3.731621   1.000000
   48        4.032459   1.000000
   49        4.688776   1.000000
   50        4.877493   1.000000
   51        5.183947   1.000000
   52        5.704030   1.000000
   53        6.119295   1.000000
   54        6.267873   1.000000
   55        6.624210   1.000000
   56        6.713466   1.000019
   57        6.819692  -0.000000
   58        8.153019   0.000000
   59        9.257094   0.000000
   60        9.556877   0.000000
   61       10.136237   0.000000
   62       11.132564   0.000000
   63       11.437294   0.000000
   64       11.776447   0.000000
   65       11.969537   0.000000
   66       12.296425   0.000000
   67       13.141115   0.000000
   68       13.399738   0.000000
 
  0.7894737E-01 -0.7894737E-01  0.0000000E+00  0.7142857E-02
    1       -6.643901   1.000000
    2       -6.186770   1.000000
    3       -6.041895   1.000000
    4       -5.954794   1.000000
    5        0.469241   1.000000
    6        0.554521   1.000000
    7        0.618791   1.000000
    8        0.683065   1.000000
    9        0.917164   1.000000
   10        1.029005   1.000000
   11        1.074449   1.000000
   12        1.151742   1.000000
   13        1.245304   1.000000
   14        1.288211   1.000000
   15        1.516613   1.000000
   16        1.540317   1.000000
   17        1.612048   1.000000
   18        1.677450   1.000000
   19        1.737137   1.000000
   20        1.848170   1.000000
   21        1.932895   1.000000
   22        1.979066   1.000000
   23        2.054110   1.000000
   24        2.078665   1.000000
   25        2.208605   1.000000
   26        2.262666   1.000000
   27        2.300796   1.000000
   28        2.384313   1.000000
   29        2.427871   1.000000
   30        2.454888   1.000000
   31        2.527943   1.000000
   32        2.577708   1.000000
   33        2.626571   1.000000
   34        2.722788   1.000000
   35        2.790334   1.000000
   36        2.848587   1.000000
   37        2.886422   1.000000
   38        2.948014   1.000000
   39        2.979943   1.000000
   40        3.027568   1.000000
   41        3.073832   1.000000
   42        3.107691   1.000000
   43        3.221160   1.000000
   44        3.320037   1.000000
   45        3.464868   1.000000
   46        3.561233   1.000000
   47        3.698066   1.000000
   48        4.135423   1.000000
   49        4.656508   1.000000
   50        4.862417   1.000000
   51        5.109294   1.000000
   52        5.670939   1.000000
   53        6.025389   1.000000
   54        6.203714   1.000000
   55        6.551783   1.000000
   56        6.711379   1.000005
   57        6.961960  -0.000000
   58        8.325033   0.000000
   59        9.230273   0.000000
   60        9.651209   0.000000
   61       10.232088   0.000000
   62       11.101615   0.000000
   63       11.357497   0.000000
   64       11.706565   0.000000
   65       11.877936   0.000000
   66       12.155310   0.000000
   67       13.023365   0.000000
   68       13.420097   0.000000
 
  0.1052632E+00 -0.1052632E+00  0.0000000E+00  0.7142857E-02
    1       -6.619765   1.000000
    2       -6.182339   1.000000
    3       -6.043595   1.000000
    4       -5.955903   1.000000
    5        0.465208   1.000000
    6        0.557209   1.000000
    7        0.626541   1.000000
    8        0.698356   1.000000
    9        0.939399   1.000000
   10        0.996421   1.000000
   11        1.093618   1.000000
   12        1.157753   1.000000
   13        1.260147   1.000000
   14        1.297223   1.000000
   15        1.515973   1.000000
   16        1.527419   1.000000
   17        1.633487   1.000000
   18        1.674417   1.000000
   19        1.762461   1.000000
   20        1.862073   1.000000
   21        1.889210   1.000000
   22        1.961309   1.000000
   23        2.026053   1.000000
   24        2.074463   1.000000
   25        2.192878   1.000000
   26        2.253818   1.000000
   27        2.314447   1.000000
   28        2.400091   1.000000
   29        2.432803   1.000000
   30        2.441697   1.000000
   31        2.537222   1.000000
   32        2.597310   1.000000
   33        2.643268   1.000000
   34        2.734325   1.000000
   35        2.773623   1.000000
   36        2.845384   1.000000
   37        2.881415   1.000000
   38        2.932983   1.000000
   39        2.969777   1.000000
   40        3.018702   1.000000
   41        3.053800   1.000000
   42        3.101538   1.000000
   43        3.212433   1.000000
   44        3.300158   1.000000
   45        3.506439   1.000000
   46        3.577625   1.000000
   47        3.676553   1.000000
   48        4.236796   1.000000
   49        4.602350   1.000000
   50        4.841041   1.000000
   51        5.057864   1.000000
   52        5.596100   1.000000
   53        5.941916   1.000000
   54        6.137293   1.000000
   55        6.458741   1.000000
   56        6.697564   1.000000
   57        7.142409   0.000000
   58        8.527690   0.000000
   59        9.200502   0.000000
   60        9.748049   0.000000
   61       10.347385   0.000000
   62       11.078697   0.000000
   63       11.251264   0.000000
   64       11.599313   0.000000
   65       11.779405   0.000000
   66       11.998833   0.000000
   67       12.825231   0.000000
   68       13.323336   0.000000
 
  0.1315789E+00 -0.1315789E+00  0.0000000E+00  0.7142857E-02
    1       -6.589752   1.000000
    2       -6.176780   1.000000
    3       -6.045458   1.000000
    4       -5.957339   1.000000
    5        0.463811   1.000000
    6        0.561751   1.000000
    7        0.634142   1.000000
    8        0.724145   1.000000
    9        0.931100   1.000000
   10        0.977484   1.000000
   11        1.117180   1.000000
   12        1.177058   1.000000
   13        1.262940   1.000000
   14        1.314900   1.000000
   15        1.501961   1.000000
   16        1.517809   1.000000
   17        1.657387   1.000000
   18        1.681427   1.000000
   19        1.788571   1.000000
   20        1.827489   1.000000
   21        1.892204   1.000000
   22        1.946853   1.000000
   23        1.996828   1.000000
   24        2.076378   1.000000
   25        2.174525   1.000000
   26        2.248651   1.000000
   27        2.326686   1.000000
   28        2.397491   1.000000
   29        2.434441   1.000000
   30        2.447015   1.000000
   31        2.548744   1.000000
   32        2.608857   1.000000
   33        2.659629   1.000000
   34        2.733498   1.000000
   35        2.765008   1.000000
   36        2.837807   1.000000
   37        2.873358   1.000000
   38        2.919502   1.000000
   39        2.959741   1.000000
   40        3.015828   1.000000
   41        3.033840   1.000000
   42        3.097049   1.000000
   43        3.200352   1.000000
   44        3.281814   1.000000
   45        3.535345   1.000000
   46        3.601332   1.000000
   47        3.670092   1.000000
   48        4.306915   1.000000
   49        4.553789   1.000000
   50        4.788142   1.000000
   51        5.063158   1.000000
   52        5.477119   1.000000
   53        5.895426   1.000000
   54        6.051501   1.000000
   55        6.370286   1.000000
   56        6.676648   1.000000
   57        7.338095   0.000000
   58        8.743687   0.000000
   59        9.171976   0.000000
   60        9.819056   0.000000
   61       10.465357   0.000000
   62       11.050245   0.000000
   63       11.141852   0.000000
   64       11.459225   0.000000
   65       11.689856   0.000000
   66       11.861708   0.000000
   67       12.587635   0.000000
   68       13.205345   0.000000
 
  0.1578947E+00 -0.1578947E+00  0.0000000E+00  0.7142857E-02
    1       -6.554595   1.000000
    2       -6.170206   1.000000
    3       -6.047280   1.000000
    4       -5.959098   1.000000
    5        0.466399   1.000000
    6        0.567569   1.000000
    7        0.647700   1.000000
    8        0.741882   1.000000
    9        0.904224   1.000000
   10        0.982537   1.000000
   11        1.129531   1.000000
   12        1.210058   1.000000
   13        1.262142   1.000000
   14        1.332384   1.000000
   15        1.473905   1.000000
   16        1.521295   1.000000
   17        1.666205   1.000000
   18        1.704355   1.000000
   19        1.788002   1.000000
   20        1.814528   1.000000
   21        1.895774   1.000000
   22        1.932715   1.000000
   23        1.983655   1.000000
   24        2.079373   1.000000
   25        2.154371   1.000000
   26        2.246003   1.000000
   27        2.332532   1.000000
   28        2.393526   1.000000
   29        2.432290   1.000000
   30        2.462602   1.000000
   31        2.557804   1.000000
   32        2.618142   1.000000
   33        2.665615   1.000000
   34        2.724854   1.000000
   35        2.767736   1.000000
   36        2.825714   1.000000
   37        2.859220   1.000000
   38        2.909570   1.000000
   39        2.948848   1.000000
   40        3.007323   1.000000
   41        3.031935   1.000000
   42        3.091896   1.000000
   43        3.183694   1.000000
   44        3.266255   1.000000
   45        3.536634   1.000000
   46        3.643668   1.000000
   47        3.679331   1.000000
   48        4.297746   1.000000
   49        4.559956   1.000000
   50        4.717171   1.000000
   51        5.102620   1.000000
   52        5.349401   1.000000
   53        5.854127   1.000000
   54        5.964546   1.000000
   55        6.296927   1.000000
   56        6.650290   1.000000
   57        7.535956   0.000000
   58        8.954662   0.000000
   59        9.152302   0.000000
   60        9.848410   0.000000
   61       10.553655   0.000000
   62       10.915363   0.000000
   63       11.110769   0.000000
   64       11.319856   0.000000
   65       11.634960   0.000000
   66       11.769789   0.000000
   67       12.362837   0.000000
   68       13.060497   0.000000
 
  0.1842105E+00 -0.1842105E+00  0.0000000E+00  0.7142857E-02
    1       -6.515218   1.000000
    2       -6.162744   1.000000
    3       -6.048838   1.000000
    4       -5.961159   1.000000
    5        0.472921   1.000000
    6        0.574269   1.000000
    7        0.665992   1.000000
    8        0.735603   1.000000
    9        0.894732   1.000000
   10        0.998289   1.000000
   11        1.133322   1.000000
   12        1.228180   1.000000
   13        1.279622   1.000000
   14        1.345136   1.000000
   15        1.441994   1.000000
   16        1.532542   1.000000
   17        1.671923   1.000000
   18        1.721132   1.000000
   19        1.761410   1.000000
   20        1.827185   1.000000
   21        1.895622   1.000000
   22        1.919521   1.000000
   23        1.990549   1.000000
   24        2.084092   1.000000
   25        2.134210   1.000000
   26        2.243103   1.000000
   27        2.333992   1.000000
   28        2.395181   1.000000
   29        2.427222   1.000000
   30        2.480658   1.000000
   31        2.555444   1.000000
   32        2.629511   1.000000
   33        2.663245   1.000000
   34        2.719442   1.000000
   35        2.775116   1.000000
   36        2.810570   1.000000
   37        2.842071   1.000000
   38        2.901223   1.000000
   39        2.935497   1.000000
   40        2.991730   1.000000
   41        3.044798   1.000000
   42        3.086957   1.000000
   43        3.165478   1.000000
   44        3.254855   1.000000
   45        3.523751   1.000000
   46        3.666650   1.000000
   47        3.722267   1.000000
   48        4.233040   1.000000
   49        4.581031   1.000000
   50        4.670307   1.000000
   51        5.099446   1.000000
   52        5.278620   1.000000
   53        5.774353   1.000000
   54        5.924150   1.000000
   55        6.238878   1.000000
   56        6.618950   1.000000
   57        7.724409   0.000000
   58        9.077965   0.000000
   59        9.213295   0.000000
   60        9.841156   0.000000
   61       10.561188   0.000000
   62       10.740555   0.000000
   63       11.042626   0.000000
   64       11.249542   0.000000
   65       11.581493   0.000000
   66       11.795870   0.000000
   67       12.186673   0.000000
   68       12.907366   0.000000
 
  0.2105263E+00 -0.2105263E+00  0.0000000E+00  0.7142857E-02
    1       -6.472691   1.000000
    2       -6.154531   1.000000
    3       -6.049928   1.000000
    4       -5.963476   1.000000
    5        0.480675   1.000000
    6        0.583288   1.000000
    7        0.671706   1.000000
    8        0.721911   1.000000
    9        0.907912   1.000000
   10        1.021036   1.000000
   11        1.131997   1.000000
   12        1.222054   1.000000
   13        1.317412   1.000000
   14        1.356720   1.000000
   15        1.412313   1.000000
   16        1.543694   1.000000
   17        1.679836   1.000000
   18        1.723856   1.000000
   19        1.739088   1.000000
   20        1.833669   1.000000
   21        1.895754   1.000000
   22        1.918049   1.000000
   23        2.004884   1.000000
   24        2.090385   1.000000
   25        2.116854   1.000000
   26        2.237879   1.000000
   27        2.335979   1.000000
   28        2.395251   1.000000
   29        2.426949   1.000000
   30        2.495642   1.000000
   31        2.536779   1.000000
   32        2.642984   1.000000
   33        2.661534   1.000000
   34        2.719429   1.000000
   35        2.775636   1.000000
   36        2.798293   1.000000
   37        2.828002   1.000000
   38        2.891369   1.000000
   39        2.922474   1.000000
   40        2.980057   1.000000
   41        3.045769   1.000000
   42        3.088303   1.000000
   43        3.150567   1.000000
   44        3.250332   1.000000
   45        3.506222   1.000000
   46        3.664264   1.000000
   47        3.783492   1.000000
   48        4.167569   1.000000
   49        4.537962   1.000000
   50        4.685468   1.000000
   51        5.024647   1.000000
   52        5.269780   1.000000
   53        5.706711   1.000000
   54        5.910373   1.000000
   55        6.194373   1.000000
   56        6.582350   1.000000
   57        7.891938   0.000000
   58        9.075164   0.000000
   59        9.378600   0.000000
   60        9.814410   0.000000
   61       10.429345   0.000000
   62       10.622970   0.000000
   63       10.931718   0.000000
   64       11.212880   0.000000
   65       11.522738   0.000000
   66       11.928591   0.000000
   67       12.098359   0.000000
   68       12.768031   0.000000
 
  0.2368421E+00 -0.2368421E+00  0.0000000E+00  0.7142857E-02
    1       -6.428250   1.000000
    2       -6.145697   1.000000
    3       -6.050386   1.000000
    4       -5.965985   1.000000
    5        0.484383   1.000000
    6        0.597624   1.000000
    7        0.636567   1.000000
    8        0.745252   1.000000
    9        0.930694   1.000000
   10        1.044741   1.000000
   11        1.129252   1.000000
   12        1.209186   1.000000
   13        1.340904   1.000000
   14        1.378205   1.000000
   15        1.398664   1.000000
   16        1.540645   1.000000
   17        1.691673   1.000000
   18        1.707517   1.000000
   19        1.739175   1.000000
   20        1.836559   1.000000
   21        1.887528   1.000000
   22        1.932872   1.000000
   23        2.016198   1.000000
   24        2.092496   1.000000
   25        2.111311   1.000000
   26        2.229428   1.000000
   27        2.337463   1.000000
   28        2.390901   1.000000
   29        2.435992   1.000000
   30        2.496941   1.000000
   31        2.517643   1.000000
   32        2.640365   1.000000
   33        2.671049   1.000000
   34        2.725856   1.000000
   35        2.765159   1.000000
   36        2.787590   1.000000
   37        2.823194   1.000000
   38        2.877106   1.000000
   39        2.914555   1.000000
   40        2.973904   1.000000
   41        3.033891   1.000000
   42        3.088199   1.000000
   43        3.142186   1.000000
   44        3.254842   1.000000
   45        3.488617   1.000000
   46        3.642858   1.000000
   47        3.837409   1.000000
   48        4.127401   1.000000
   49        4.481999   1.000000
   50        4.685067   1.000000
   51        4.973871   1.000000
   52        5.219127   1.000000
   53        5.702028   1.000000
   54        5.899981   1.000000
   55        6.162857   1.000000
   56        6.539606   1.000000
   57        8.027829   0.000000
   58        9.062369   0.000000
   59        9.508588   0.000000
   60        9.783726   0.000000
   61       10.230514   0.000000
   62       10.544787   0.000000
   63       10.842325   0.000000
   64       11.146796   0.000000
   65       11.513073   0.000000
   66       11.942283   0.000000
   67       12.220242   0.000000
   68       12.659965   0.000000
 
  0.2631579E+00 -0.2631579E+00  0.0000000E+00  0.7142857E-02
    1       -6.383285   1.000000
    2       -6.136325   1.000000
    3       -6.050110   1.000000
    4       -5.968597   1.000000
    5        0.479876   1.000000
    6        0.582974   1.000000
    7        0.629414   1.000000
    8        0.783483   1.000000
    9        0.954208   1.000000
   10        1.059987   1.000000
   11        1.131513   1.000000
   12        1.196270   1.000000
   13        1.330086   1.000000
   14        1.406471   1.000000
   15        1.423120   1.000000
   16        1.516262   1.000000
   17        1.690088   1.000000
   18        1.718343   1.000000
   19        1.744904   1.000000
   20        1.836243   1.000000
   21        1.883615   1.000000
   22        1.943689   1.000000
   23        2.021271   1.000000
   24        2.089473   1.000000
   25        2.120717   1.000000
   26        2.217840   1.000000
   27        2.336875   1.000000
   28        2.384012   1.000000
   29        2.446445   1.000000
   30        2.475147   1.000000
   31        2.520411   1.000000
   32        2.622982   1.000000
   33        2.683059   1.000000
   34        2.734924   1.000000
   35        2.754913   1.000000
   36        2.773749   1.000000
   37        2.821673   1.000000
   38        2.862545   1.000000
   39        2.910217   1.000000
   40        2.973568   1.000000
   41        3.022159   1.000000
   42        3.078229   1.000000
   43        3.137283   1.000000
   44        3.263176   1.000000
   45        3.476753   1.000000
   46        3.602546   1.000000
   47        3.873514   1.000000
   48        4.117280   1.000000
   49        4.431326   1.000000
   50        4.650076   1.000000
   51        4.970158   1.000000
   52        5.142701   1.000000
   53        5.727815   1.000000
   54        5.893679   1.000000
   55        6.142763   1.000000
   56        6.489658   1.000000
   57        8.124568   0.000000
   58        9.052231   0.000000
   59        9.563615   0.000000
   60        9.746263   0.000000
   61       10.048252   0.000000
   62       10.480888   0.000000
   63       10.802434   0.000000
   64       11.089352   0.000000
   65       11.533819   0.000000
   66       11.907050   0.000000
   67       12.351617   0.000000
   68       12.622567   0.000000
 
  0.2894737E+00 -0.2894737E+00  0.0000000E+00  0.7142857E-02
    1       -6.339327   1.000000
    2       -6.126415   1.000000
    3       -6.049073   1.000000
    4       -5.971215   1.000000
    5        0.466906   1.000000
    6        0.538959   1.000000
    7        0.662820   1.000000
    8        0.826689   1.000000
    9        0.972798   1.000000
   10        1.063265   1.000000
   11        1.138835   1.000000
   12        1.191514   1.000000
   13        1.312763   1.000000
   14        1.421303   1.000000
   15        1.462802   1.000000
   16        1.490886   1.000000
   17        1.686636   1.000000
   18        1.741861   1.000000
   19        1.752445   1.000000
   20        1.835269   1.000000
   21        1.886650   1.000000
   22        1.945540   1.000000
   23        2.022686   1.000000
   24        2.089038   1.000000
   25        2.133246   1.000000
   26        2.205827   1.000000
   27        2.333995   1.000000
   28        2.371999   1.000000
   29        2.442325   1.000000
   30        2.465549   1.000000
   31        2.529077   1.000000
   32        2.598719   1.000000
   33        2.690594   1.000000
   34        2.734355   1.000000
   35        2.749788   1.000000
   36        2.763479   1.000000
   37        2.810120   1.000000
   38        2.859777   1.000000
   39        2.905377   1.000000
   40        2.977558   1.000000
   41        3.016893   1.000000
   42        3.063914   1.000000
   43        3.131103   1.000000
   44        3.263374   1.000000
   45        3.472147   1.000000
   46        3.556233   1.000000
   47        3.892237   1.000000
   48        4.117433   1.000000
   49        4.389502   1.000000
   50        4.604086   1.000000
   51        4.975792   1.000000
   52        5.108871   1.000000
   53        5.734214   1.000000
   54        5.897720   1.000000
   55        6.130085   1.000000
   56        6.432641   1.000000
   57        8.180108   0.000000
   58        9.044782   0.000000
   59        9.536542   0.000000
   60        9.664970   0.000000
   61        9.930608   0.000000
   62       10.443829   0.000000
   63       10.821370   0.000000
   64       11.084515   0.000000
   65       11.560362   0.000000
   66       11.883137   0.000000
   67       12.347054   0.000000
   68       12.658932   0.000000
 
  0.3157895E+00 -0.3157895E+00  0.0000000E+00  0.7142857E-02
    1       -6.298039   1.000000
    2       -6.115845   1.000000
    3       -6.047332   1.000000
    4       -5.973723   1.000000
    5        0.446257   1.000000
    6        0.501712   1.000000
    7        0.702247   1.000000
    8        0.870686   1.000000
    9        0.982814   1.000000
   10        1.060554   1.000000
   11        1.146695   1.000000
   12        1.199279   1.000000
   13        1.298564   1.000000
   14        1.396918   1.000000
   15        1.478692   1.000000
   16        1.525527   1.000000
   17        1.684830   1.000000
   18        1.756832   1.000000
   19        1.766468   1.000000
   20        1.837835   1.000000
   21        1.896566   1.000000
   22        1.944152   1.000000
   23        2.023253   1.000000
   24        2.085268   1.000000
   25        2.146561   1.000000
   26        2.197492   1.000000
   27        2.326566   1.000000
   28        2.355449   1.000000
   29        2.430947   1.000000
   30        2.465153   1.000000
   31        2.539133   1.000000
   32        2.572831   1.000000
   33        2.691616   1.000000
   34        2.716017   1.000000
   35        2.753887   1.000000
   36        2.755867   1.000000
   37        2.791173   1.000000
   38        2.867323   1.000000
   39        2.900356   1.000000
   40        2.982491   1.000000
   41        3.017415   1.000000
   42        3.050837   1.000000
   43        3.123930   1.000000
   44        3.251620   1.000000
   45        3.448050   1.000000
   46        3.537517   1.000000
   47        3.896953   1.000000
   48        4.105719   1.000000
   49        4.370104   1.000000
   50        4.543258   1.000000
   51        5.003439   1.000000
   52        5.129279   1.000000
   53        5.712882   1.000000
   54        5.898132   1.000000
   55        6.120139   1.000000
   56        6.372504   1.000000
   57        8.197885   0.000000
   58        9.039082   0.000000
   59        9.435293   0.000000
   60        9.534403   0.000000
   61        9.898013   0.000000
   62       10.445231   0.000000
   63       10.885718   0.000000
   64       11.133783   0.000000
   65       11.589354   0.000000
   66       11.873791   0.000000
   67       12.300116   0.000000
   68       12.655611   0.000000
 
  0.3421053E+00 -0.3421053E+00  0.0000000E+00  0.7142857E-02
    1       -6.261147   1.000000
    2       -6.104422   1.000000
    3       -6.045011   1.000000
    4       -5.976015   1.000000
    5        0.419380   1.000000
    6        0.474869   1.000000
    7        0.742631   1.000000
    8        0.909526   1.000000
    9        0.987563   1.000000
   10        1.054354   1.000000
   11        1.162667   1.000000
   12        1.209463   1.000000
   13        1.288714   1.000000
   14        1.352146   1.000000
   15        1.499601   1.000000
   16        1.571916   1.000000
   17        1.685103   1.000000
   18        1.763113   1.000000
   19        1.780847   1.000000
   20        1.844960   1.000000
   21        1.912592   1.000000
   22        1.946926   1.000000
   23        2.025578   1.000000
   24        2.075827   1.000000
   25        2.157057   1.000000
   26        2.196085   1.000000
   27        2.312563   1.000000
   28        2.339883   1.000000
   29        2.422453   1.000000
   30        2.465665   1.000000
   31        2.535125   1.000000
   32        2.559720   1.000000
   33        2.681521   1.000000
   34        2.694428   1.000000
   35        2.744947   1.000000
   36        2.752705   1.000000
   37        2.781686   1.000000
   38        2.874434   1.000000
   39        2.897822   1.000000
   40        2.984813   1.000000
   41        3.016949   1.000000
   42        3.042443   1.000000
   43        3.120066   1.000000
   44        3.235095   1.000000
   45        3.400194   1.000000
   46        3.540657   1.000000
   47        3.882441   1.000000
   48        4.097856   1.000000
   49        4.353954   1.000000
   50        4.494217   1.000000
   51        5.083548   1.000000
   52        5.164692   1.000000
   53        5.676423   1.000000
   54        5.868927   1.000000
   55        6.110649   1.000000
   56        6.318543   1.000000
   57        8.186017   0.000000
   58        9.032396   0.000000
   59        9.274221   0.000000
   60        9.405141   0.000000
   61        9.923633   0.000000
   62       10.490184   0.000000
   63       10.974457   0.000000
   64       11.207410   0.000000
   65       11.621729   0.000000
   66       11.886260   0.000000
   67       12.262709   0.000000
   68       12.596856   0.000000
 
  0.3684211E+00 -0.3684211E+00  0.0000000E+00  0.7142857E-02
    1       -6.230178   1.000000
    2       -6.092072   1.000000
    3       -6.042263   1.000000
    4       -5.977999   1.000000
    5        0.391095   1.000000
    6        0.456227   1.000000
    7        0.780506   1.000000
    8        0.933211   1.000000
    9        0.998099   1.000000
   10        1.047277   1.000000
   11        1.187134   1.000000
   12        1.208619   1.000000
   13        1.282210   1.000000
   14        1.318788   1.000000
   15        1.516938   1.000000
   16        1.606547   1.000000
   17        1.696825   1.000000
   18        1.765661   1.000000
   19        1.790843   1.000000
   20        1.852865   1.000000
   21        1.927856   1.000000
   22        1.959914   1.000000
   23        2.029167   1.000000
   24        2.069340   1.000000
   25        2.154914   1.000000
   26        2.206493   1.000000
   27        2.295997   1.000000
   28        2.325542   1.000000
   29        2.416756   1.000000
   30        2.467401   1.000000
   31        2.514655   1.000000
   32        2.562345   1.000000
   33        2.657490   1.000000
   34        2.676860   1.000000
   35        2.730166   1.000000
   36        2.743776   1.000000
   37        2.785528   1.000000
   38        2.876464   1.000000
   39        2.899467   1.000000
   40        2.980905   1.000000
   41        3.011254   1.000000
   42        3.039148   1.000000
   43        3.122760   1.000000
   44        3.220360   1.000000
   45        3.355531   1.000000
   46        3.522812   1.000000
   47        3.850276   1.000000
   48        4.121210   1.000000
   49        4.291699   1.000000
   50        4.522409   1.000000
   51        5.177059   1.000000
   52        5.217221   1.000000
   53        5.631746   1.000000
   54        5.797537   1.000000
   55        6.102146   1.000000
   56        6.279814   1.000000
   57        8.156651   0.000000
   58        9.005860   0.000000
   59        9.095262   0.000000
   60        9.301465   0.000000
   61        9.986064   0.000000
   62       10.573648   0.000000
   63       11.070290   0.000000
   64       11.280661   0.000000
   65       11.645468   0.000000
   66       11.929610   0.000000
   67       12.250803   0.000000
   68       12.501511   0.000000
 
  0.3947368E+00 -0.3947368E+00  0.0000000E+00  0.7142857E-02
    1       -6.206068   1.000000
    2       -6.079253   1.000000
    3       -6.039201   1.000000
    4       -5.979624   1.000000
    5        0.365837   1.000000
    6        0.442801   1.000000
    7        0.813562   1.000000
    8        0.940902   1.000000
    9        1.009415   1.000000
   10        1.049124   1.000000
   11        1.181001   1.000000
   12        1.219047   1.000000
   13        1.279837   1.000000
   14        1.310868   1.000000
   15        1.527423   1.000000
   16        1.621693   1.000000
   17        1.725776   1.000000
   18        1.765342   1.000000
   19        1.800548   1.000000
   20        1.857508   1.000000
   21        1.940623   1.000000
   22        1.976828   1.000000
   23        2.030275   1.000000
   24        2.074268   1.000000
   25        2.146410   1.000000
   26        2.220315   1.000000
   27        2.284616   1.000000
   28        2.310392   1.000000
   29        2.412963   1.000000
   30        2.465238   1.000000
   31        2.501563   1.000000
   32        2.563921   1.000000
   33        2.632184   1.000000
   34        2.659536   1.000000
   35        2.713891   1.000000
   36        2.731368   1.000000
   37        2.793662   1.000000
   38        2.874565   1.000000
   39        2.903531   1.000000
   40        2.970085   1.000000
   41        3.004696   1.000000
   42        3.038169   1.000000
   43        3.127251   1.000000
   44        3.209433   1.000000
   45        3.324468   1.000000
   46        3.468547   1.000000
   47        3.822761   1.000000
   48        4.118833   1.000000
   49        4.278353   1.000000
   50        4.595749   1.000000
   51        5.198915   1.000000
   52        5.336186   1.000000
   53        5.576975   1.000000
   54        5.698810   1.000000
   55        6.094520   1.000000
   56        6.257019   1.000000
   57        8.123671   0.000000
   58        8.850270   0.000000
   59        9.030299   0.000000
   60        9.224935   0.000000
   61       10.074797   0.000000
   62       10.675504   0.000000
   63       11.164201   0.000000
   64       11.353228   0.000000
   65       11.649813   0.000000
   66       11.984409   0.000000
   67       12.269922   0.000000
   68       12.396625   0.000000
 
  0.4210526E+00 -0.4210526E+00  0.0000000E+00  0.7142857E-02
    1       -6.188799   1.000000
    2       -6.067303   1.000000
    3       -6.035827   1.000000
    4       -5.980871   1.000000
    5        0.345571   1.000000
    6        0.433234   1.000000
    7        0.841209   1.000000
    8        0.944930   1.000000
    9        1.003785   1.000000
   10        1.060872   1.000000
   11        1.155061   1.000000
   12        1.239608   1.000000
   13        1.282618   1.000000
   14        1.318206   1.000000
   15        1.532865   1.000000
   16        1.627454   1.000000
   17        1.753984   1.000000
   18        1.764019   1.000000
   19        1.815408   1.000000
   20        1.860352   1.000000
   21        1.952242   1.000000
   22        1.985516   1.000000
   23        2.035753   1.000000
   24        2.077322   1.000000
   25        2.146882   1.000000
   26        2.226652   1.000000
   27        2.279382   1.000000
   28        2.302726   1.000000
   29        2.408091   1.000000
   30        2.450342   1.000000
   31        2.507062   1.000000
   32        2.564726   1.000000
   33        2.613185   1.000000
   34        2.643383   1.000000
   35        2.696471   1.000000
   36        2.714407   1.000000
   37        2.805489   1.000000
   38        2.870501   1.000000
   39        2.907957   1.000000
   40        2.958322   1.000000
   41        2.999203   1.000000
   42        3.036965   1.000000
   43        3.127528   1.000000
   44        3.202053   1.000000
   45        3.309129   1.000000
   46        3.389228   1.000000
   47        3.810423   1.000000
   48        4.048064   1.000000
   49        4.371443   1.000000
   50        4.686415   1.000000
   51        5.193053   1.000000
   52        5.414950   1.000000
   53        5.510973   1.000000
   54        5.632085   1.000000
   55        6.086475   1.000000
   56        6.245625   1.000000
   57        8.099601   0.000000
   58        8.656145   0.000000
   59        9.007974   0.000000
   60        9.172133   0.000000
   61       10.180908   0.000000
   62       10.763056   0.000000
   63       11.254764   0.000000
   64       11.432034   0.000000
   65       11.650922   0.000000
   66       11.987056   0.000000
   67       12.283676   0.000000
   68       12.364316   0.000000
 
  0.4473684E+00 -0.4473684E+00  0.0000000E+00  0.7142857E-02
    1       -6.177548   1.000000
    2       -6.058091   1.000000
    3       -6.032194   1.000000
    4       -5.981746   1.000000
    5        0.330955   1.000000
    6        0.426865   1.000000
    7        0.865227   1.000000
    8        0.947902   1.000000
    9        0.991486   1.000000
   10        1.055816   1.000000
   11        1.152218   1.000000
   12        1.249925   1.000000
   13        1.286623   1.000000
   14        1.329110   1.000000
   15        1.537419   1.000000
   16        1.630760   1.000000
   17        1.756418   1.000000
   18        1.771851   1.000000
   19        1.839191   1.000000
   20        1.865262   1.000000
   21        1.950765   1.000000
   22        1.999923   1.000000
   23        2.040305   1.000000
   24        2.070086   1.000000
   25        2.156836   1.000000
   26        2.229708   1.000000
   27        2.271203   1.000000
   28        2.313794   1.000000
   29        2.395657   1.000000
   30        2.434007   1.000000
   31        2.521131   1.000000
   32        2.568290   1.000000
   33        2.601227   1.000000
   34        2.631401   1.000000
   35        2.678234   1.000000
   36        2.693681   1.000000
   37        2.822424   1.000000
   38        2.865431   1.000000
   39        2.912082   1.000000
   40        2.950365   1.000000
   41        2.994238   1.000000
   42        3.034719   1.000000
   43        3.124605   1.000000
   44        3.197425   1.000000
   45        3.294761   1.000000
   46        3.316533   1.000000
   47        3.811099   1.000000
   48        3.975388   1.000000
   49        4.498800   1.000000
   50        4.783047   1.000000
   51        5.162847   1.000000
   52        5.315445   1.000000
   53        5.506430   1.000000
   54        5.662163   1.000000
   55        6.077394   1.000000
   56        6.241520   1.000000
   57        8.093889   0.000000
   58        8.481922   0.000000
   59        8.990451   0.000000
   60        9.137255   0.000000
   61       10.290625   0.000000
   62       10.813738   0.000000
   63       11.328515   0.000000
   64       11.489932   0.000000
   65       11.703858   0.000000
   66       11.908401   0.000000
   67       12.289634   0.000000
   68       12.416009   0.000000
 
  0.4736842E+00 -0.4736842E+00  0.0000000E+00  0.7142857E-02
    1       -6.171280   1.000000
    2       -6.052741   1.000000
    3       -6.029008   1.000000
    4       -5.982268   1.000000
    5        0.322180   1.000000
    6        0.423259   1.000000
    7        0.888705   1.000000
    8        0.938888   1.000000
    9        0.986399   1.000000
   10        1.039903   1.000000
   11        1.164918   1.000000
   12        1.252313   1.000000
   13        1.289343   1.000000
   14        1.336598   1.000000
   15        1.542533   1.000000
   16        1.632405   1.000000
   17        1.750959   1.000000
   18        1.777446   1.000000
   19        1.860894   1.000000
   20        1.871980   1.000000
   21        1.942700   1.000000
   22        2.015864   1.000000
   23        2.040116   1.000000
   24        2.061332   1.000000
   25        2.162346   1.000000
   26        2.233418   1.000000
   27        2.275403   1.000000
   28        2.325716   1.000000
   29        2.373926   1.000000
   30        2.426766   1.000000
   31        2.532141   1.000000
   32        2.575851   1.000000
   33        2.594261   1.000000
   34        2.626417   1.000000
   35        2.662068   1.000000
   36        2.673864   1.000000
   37        2.840796   1.000000
   38        2.862000   1.000000
   39        2.915698   1.000000
   40        2.945094   1.000000
   41        2.990726   1.000000
   42        3.032461   1.000000
   43        3.122963   1.000000
   44        3.194920   1.000000
   45        3.234713   1.000000
   46        3.310857   1.000000
   47        3.821415   1.000000
   48        3.919661   1.000000
   49        4.624025   1.000000
   50        4.873745   1.000000
   51        5.110628   1.000000
   52        5.184890   1.000000
   53        5.494934   1.000000
   54        5.724363   1.000000
   55        6.068736   1.000000
   56        6.241315   1.000000
   57        8.110291   0.000000
   58        8.347008   0.000000
   59        8.979507   0.000000
   60        9.116600   0.000000
   61       10.380253   0.000000
   62       10.831507   0.000000
   63       11.373156   0.000000
   64       11.496121   0.000000
   65       11.794187   0.000000
   66       11.847684   0.000000
   67       12.311302   0.000000
   68       12.449676   0.000000
 
  0.5000000E+00 -0.5000000E+00  0.0000000E+00  0.7142857E-02
    1       -6.169273   1.000000
    2       -6.051066   1.000000
    3       -6.027690   1.000000
    4       -5.982438   1.000000
    5        0.319265   1.000000
    6        0.422102   1.000000
    7        0.908161   1.000000
    8        0.921690   1.000000
    9        0.988206   1.000000
   10        1.032040   1.000000
   11        1.171747   1.000000
   12        1.252009   1.000000
   13        1.290266   1.000000
   14        1.338958   1.000000
   15        1.545083   1.000000
   16        1.632773   1.000000
   17        1.748423   1.000000
   18        1.779107   1.000000
   19        1.868402   1.000000
   20        1.876440   1.000000
   21        1.938764   1.000000
   22        2.021695   1.000000
   23        2.039796   1.000000
   24        2.057566   1.000000
   25        2.162962   1.000000
   26        2.234436   1.000000
   27        2.284689   1.000000
   28        2.327989   1.000000
   29        2.361929   1.000000
   30        2.425215   1.000000
   31        2.535906   1.000000
   32        2.579814   1.000000
   33        2.592448   1.000000
   34        2.626583   1.000000
   35        2.654756   1.000000
   36        2.664582   1.000000
   37        2.848369   1.000000
   38        2.862381   1.000000
   39        2.917648   1.000000
   40        2.942179   1.000000
   41        2.989647   1.000000
   42        3.031597   1.000000
   43        3.123395   1.000000
   44        3.194276   1.000000
   45        3.207550   1.000000
   46        3.311527   1.000000
   47        3.830785   1.000000
   48        3.894878   1.000000
   49        4.686728   1.000000
   50        4.923692   1.000000
   51        5.066582   1.000000
   52        5.126215   1.000000
   53        5.489630   1.000000
   54        5.750159   1.000000
   55        6.064819   1.000000
   56        6.241767   1.000000
   57        8.128937   0.000000
   58        8.286891   0.000000
   59        8.975907   0.000000
   60        9.109619   0.000000
   61       10.416563   0.000000
   62       10.833857   0.000000
   63       11.387805   0.000000
   64       11.492993   0.000000
   65       11.770102   0.000000
   66       11.899561   0.000000
   67       12.322950   0.000000
   68       12.454133   0.000000
