       N       E                     dE             d eps       ncg     rms          rms(c)
DAV:   1     0.767604899739E+03    0.76760E+03   -0.55413E+04 19040   0.154E+03
DAV:   2     0.803278855688E+01   -0.75957E+03   -0.72925E+03 20364   0.351E+02
DAV:   3    -0.298828217328E+02   -0.37916E+02   -0.37046E+02 21368   0.737E+01
DAV:   4    -0.305411861217E+02   -0.65836E+00   -0.65400E+00 21324   0.979E+00
DAV:   5    -0.305504007799E+02   -0.92147E-02   -0.92096E-02 20940   0.113E+00
DAV:   6    -0.305506442127E+02   -0.24343E-03   -0.24339E-03 21248   0.177E-01
DAV:   7    -0.305506523325E+02   -0.81198E-05   -0.81197E-05 14132   0.284E-02
   1 F= -.36367069E+02 E0= -.36367118E+02  d E =0.145671E-03
