 vasp.5.4.4.18Apr17-6-g9f103f2a35 (build Jan 06 2021 21:16:15) complex          
  
 executed on             LinuxIFC date 2025.01.07  14:15:32
 running on   16 total cores
 distrk:  each k-point on   16 cores,    1 groups
 distr:  one band on NCORES_PER_BAND=   4 cores,    4 groups


--------------------------------------------------------------------------------------------------------


 INCAR:
 POTCAR:    PAW_PBE Ag 02Apr2005                  
 POTCAR:    PAW_PBE Se 06Sep2000                  
 POTCAR:    PAW_PBE S 06Sep2000                   
 POTCAR:    PAW_PBE Ag 02Apr2005                  
   VRHFIN =Ag : s1 d10                                                          
   LEXCH  = PE                                                                  
   EATOM  =  1037.2675 eV,   76.2370 Ry                                         
                                                                                
   TITEL  = PAW_PBE Ag 02Apr2005                                                
   LULTRA =        F    use ultrasoft PP ?                                      
   IUNSCR =        1    unscreen: 0-lin 1-nonlin 2-no                           
   RPACOR =    2.000    partial core radius                                     
   POMASS =  107.868; ZVAL   =   11.000    mass and valenz                      
   RCORE  =    2.500    outmost cutoff radius                                   
   RWIGS  =    2.840; RWIGS  =    1.503    wigner-seitz radius (au A)           
   ENMAX  =  249.844; ENMIN  =  187.383 eV                                      
   ICORE  =        3    local potential                                         
   LCOR   =        T    correct aug charges                                     
   LPAW   =        T    paw PP                                                  
   EAUG   =  412.496                                                            
   DEXC   =    0.000                                                            
   RMAX   =    2.560    core radius for proj-oper                               
   RAUG   =    1.300    factor for augmentation sphere                          
   RDEP   =    2.576    radius for radial grids                                 
   RDEPT  =    2.072    core radius for aug-charge                              
                                                                                
   Atomic configuration                                                         
   12 entries                                                                   
     n  l   j            E        occ.                                          
     1  0  0.50    -25324.9161   2.0000                                         
     2  0  0.50     -3728.5341   2.0000                                         
     2  1  1.50     -3344.0404   6.0000                                         
     3  0  0.50      -683.5581   2.0000                                         
     3  1  1.50      -557.3225   6.0000                                         
     3  2  2.50      -358.3853  10.0000                                         
     4  0  0.50       -95.0341   2.0000                                         
     4  1  1.50       -58.5511   6.0000                                         
     4  2  2.50        -7.4440  10.0000                                         
     5  0  0.50        -4.4045   1.0000                                         
     5  1  0.50        -1.3606   0.0000                                         
     4  3  2.50        -1.3606   0.0000                                         
   Description                                                                  
     l       E           TYP  RCUT    TYP  RCUT                                 
     2     -7.4439781     23  2.400                                             
     2     -8.8045607     23  2.400                                             
     0     -4.4044681     23  2.400                                             
     0      1.9520038     23  2.400                                             
     1     -1.3605826     23  2.500                                             
     1     27.2116520     23  2.500                                             
     3     -4.0817478     23  2.400                                             
  local pseudopotential read in
  partial core-charges read in
  partial kinetic energy density read in
  atomic valenz-charges read in
  non local Contribution for L=           2  read in
    real space projection operators read in
  non local Contribution for L=           2  read in
    real space projection operators read in
  non local Contribution for L=           0  read in
    real space projection operators read in
  non local Contribution for L=           0  read in
    real space projection operators read in
  non local Contribution for L=           1  read in
    real space projection operators read in
  non local Contribution for L=           1  read in
    real space projection operators read in
    PAW grid and wavefunctions read in
 
   number of l-projection  operators is LMAX  =           6
   number of lm-projection operators is LMMAX =          18
 
 POTCAR:    PAW_PBE Se 06Sep2000                  
   VRHFIN =Se: s2p4                                                             
   LEXCH  = PE                                                                  
   EATOM  =   257.1286 eV,   18.8984 Ry                                         
                                                                                
   TITEL  = PAW_PBE Se 06Sep2000                                                
   LULTRA =        F    use ultrasoft PP ?                                      
   IUNSCR =        1    unscreen: 0-lin 1-nonlin 2-no                           
   RPACOR =    1.900    partial core radius                                     
   POMASS =   78.960; ZVAL   =    6.000    mass and valenz                      
   RCORE  =    2.100    outmost cutoff radius                                   
   RWIGS  =    2.200; RWIGS  =    1.164    wigner-seitz radius (au A)           
   ENMAX  =  211.555; ENMIN  =  158.666 eV                                      
   ICORE  =        3    local potential                                         
   LCOR   =        T    correct aug charges                                     
   LPAW   =        T    paw PP                                                  
   EAUG   =  446.842                                                            
   DEXC   =    0.000                                                            
   RMAX   =    2.147    core radius for proj-oper                               
   RAUG   =    1.300    factor for augmentation sphere                          
   RDEP   =    2.177    radius for radial grids                                 
   RDEPT  =    1.928    core radius for aug-charge                              
                                                                                
   Atomic configuration                                                         
   10 entries                                                                   
     n  l   j            E        occ.                                          
     1  0  0.50    -12503.4787   2.0000                                         
     2  0  0.50     -1606.9547   2.0000                                         
     2  1  1.50     -1413.3140   6.0000                                         
     3  0  0.50      -213.4885   2.0000                                         
     3  1  1.50      -152.9538   6.0000                                         
     3  2  2.50       -53.1221  10.0000                                         
     4  0  0.50       -17.2865   2.0000                                         
     4  1  0.50        -6.5110   4.0000                                         
     4  2  2.50        -6.8029   0.0000                                         
     4  3  2.50        -6.8029   0.0000                                         
   Description                                                                  
     l       E           TYP  RCUT    TYP  RCUT                                 
     0    -17.2865377     23  2.100                                             
     0    -15.3094411     23  2.100                                             
     1     -6.5110275     23  2.100                                             
     1     -0.0695192     23  2.100                                             
     2     -6.8029130     23  2.100                                             
     3     -1.3605826      7  2.100                                             
  local pseudopotential read in
  partial core-charges read in
  partial kinetic energy density read in
  atomic valenz-charges read in
  non local Contribution for L=           0  read in
    real space projection operators read in
  non local Contribution for L=           0  read in
    real space projection operators read in
  non local Contribution for L=           1  read in
    real space projection operators read in
  non local Contribution for L=           1  read in
    real space projection operators read in
  non local Contribution for L=           2  read in
    real space projection operators read in
    PAW grid and wavefunctions read in
 
   number of l-projection  operators is LMAX  =           5
   number of lm-projection operators is LMMAX =          13
 
 POTCAR:    PAW_PBE S 06Sep2000                   
   VRHFIN =S : s2p4                                                             
   LEXCH  = PE                                                                  
   EATOM  =   276.8230 eV,   20.3459 Ry                                         
                                                                                
   TITEL  = PAW_PBE S 06Sep2000                                                 
   LULTRA =        F    use ultrasoft PP ?                                      
   IUNSCR =        1    unscreen: 0-lin 1-nonlin 2-no                           
   RPACOR =    1.500    partial core radius                                     
   POMASS =   32.066; ZVAL   =    6.000    mass and valenz                      
   RCORE  =    1.900    outmost cutoff radius                                   
   RWIGS  =    2.200; RWIGS  =    1.164    wigner-seitz radius (au A)           
   ENMAX  =  258.689; ENMIN  =  194.016 eV                                      
   ICORE  =        2    local potential                                         
   LCOR   =        T    correct aug charges                                     
   LPAW   =        T    paw PP                                                  
   EAUG   =  335.092                                                            
   DEXC   =    0.000                                                            
   RMAX   =    1.942    core radius for proj-oper                               
   RAUG   =    1.300    factor for augmentation sphere                          
   RDEP   =    1.954    radius for radial grids                                 
   RDEPT  =    1.744    core radius for aug-charge                              
                                                                                
   Atomic configuration                                                         
    6 entries                                                                   
     n  l   j            E        occ.                                          
     1  0  0.50     -2405.8406   2.0000                                         
     2  0  0.50      -211.7007   2.0000                                         
     2  1  1.50      -156.4958   6.0000                                         
     3  0  0.50       -17.2562   2.0000                                         
     3  1  0.50        -7.0085   4.0000                                         
     3  2  1.50        -6.8029   0.0000                                         
   Description                                                                  
     l       E           TYP  RCUT    TYP  RCUT                                 
     0    -17.2561641     23  1.900                                             
     0    -15.8743224     23  1.900                                             
     1     -7.0085400     23  1.900                                             
     1     -2.7779785     23  1.900                                             
     2     -6.8029130     23  1.900                                             
  local pseudopotential read in
  partial core-charges read in
  partial kinetic energy density read in
  atomic valenz-charges read in
  non local Contribution for L=           0  read in
    real space projection operators read in
  non local Contribution for L=           0  read in
    real space projection operators read in
  non local Contribution for L=           1  read in
    real space projection operators read in
  non local Contribution for L=           1  read in
    real space projection operators read in
    PAW grid and wavefunctions read in
 
   number of l-projection  operators is LMAX  =           4
   number of lm-projection operators is LMMAX =           8
 
  PAW_PBE Ag 02Apr2005                  :
 energy of atom  1       EATOM=-1037.2675
 kinetic energy error for atom=    0.0052 (will be added to EATOM!!)
  PAW_PBE Se 06Sep2000                  :
 energy of atom  2       EATOM= -257.1286
 kinetic energy error for atom=    0.0008 (will be added to EATOM!!)
  PAW_PBE S 06Sep2000                   :
 energy of atom  3       EATOM= -276.8230
 kinetic energy error for atom=    0.0020 (will be added to EATOM!!)
 
 
 POSCAR: Ag8Se1S3                                
  positions in direct lattice
  velocities in cartesian coordinates
 exchange correlation table for  LEXCH =        8
   RHO(1)=    0.500       N(1)  =     2000
   RHO(2)=  100.500       N(2)  =     4000
 


--------------------------------------------------------------------------------------------------------


 ion  position               nearest neighbor table
   1  0.603  0.469  0.839-  11 2.57  12 2.58   9 2.85   6 2.97   2 2.99   8 3.03   3 3.08   7 3.10
                            11 3.14   7 3.19   2 3.33   4 3.57
   2  0.350  0.535  0.140-  10 2.59   9 2.69  11 2.70   1 2.99   9 3.00   8 3.00   7 3.03   3 3.06
                             8 3.08   1 3.33   6 3.38
   3  0.233  0.361  0.459-  12 2.57   9 2.67  12 2.69  10 2.72   6 2.92   6 2.95   5 3.04   4 3.05
                             2 3.06   1 3.08   5 3.50
   4  0.424  0.981  0.665-  12 2.57  11 2.58  10 2.80   7 2.93   5 2.93   6 2.97  12 2.99   3 3.05
                             8 3.20   6 3.40   7 3.49   1 3.57
   5  0.586  0.014  0.343-  10 2.55   9 2.66  12 2.79   4 2.93  10 2.98   6 2.99   8 2.99   3 3.04
                             7 3.28   3 3.50   8 3.58
   6  0.788  0.649  0.553-  11 2.59  10 2.61  10 2.67  12 2.78   3 2.92   3 2.95   1 2.97   4 2.97
                             5 2.99   2 3.38   4 3.40
   7  0.197  0.144  0.944-  12 2.58   9 2.70  11 2.73   9 2.74   4 2.93   8 2.96   2 3.03   1 3.10
                             8 3.11   1 3.19   5 3.28   4 3.49
   8  0.800  0.845  0.053-  11 2.62  10 2.63  11 2.73   9 2.83   7 2.96   5 2.99   2 3.00   1 3.03
                             2 3.08   7 3.11   4 3.20   5 3.58
   9  0.816  0.250  0.150-   5 2.66   3 2.67   2 2.69   7 2.70   7 2.74   8 2.83   1 2.85   2 3.00

  10  0.177  0.748  0.365-   5 2.55   2 2.59   6 2.61   8 2.63   6 2.67   3 2.72   4 2.80   5 2.98

  11  0.195  0.754  0.851-   1 2.57   4 2.58   6 2.59   8 2.62   2 2.70   7 2.73   8 2.73   1 3.14

  12  0.831  0.250  0.638-   3 2.57   4 2.57   1 2.58   7 2.58   3 2.69   6 2.78   5 2.79   4 2.99

 
  LATTYP: Found a triclinic cell.
 ALAT       =     4.1742737362
 B/A-ratio  =     2.3123569678
 C/A-ratio  =     1.6183170762
 COS(alpha) =     0.0021458628
 COS(beta)  =     0.0209670810
 COS(gamma) =     0.5951031095
  
  Lattice vectors:
  
 A1 = (  -4.1739664955,  -0.0400035571,  -0.0310585667)
 A2 = (  -5.6864853672,  -0.0084189768,  -7.7995416927)
 A3 = (  -0.0772516867,  -6.7547023209,   0.0456741534)


Analysis of symmetry for initial positions (statically):
=====================================================================
 Subroutine PRICEL returns:
 Original cell was already a primitive cell.
 

 Routine SETGRP: Setting up the symmetry group for a 
 triclinic supercell.


 Subroutine GETGRP returns: Found  1 space group operations
 (whereof  1 operations were pure point group operations)
 out of a pool of  2 trial point group operations.


The static configuration has the point symmetry C_1 .


Analysis of symmetry for dynamics (positions and initial velocities):
=====================================================================
 Subroutine PRICEL returns:
 Original cell was already a primitive cell.
 

 Routine SETGRP: Setting up the symmetry group for a 
 triclinic supercell.


 Subroutine GETGRP returns: Found  1 space group operations
 (whereof  1 operations were pure point group operations)
 out of a pool of  2 trial point group operations.


The dynamic configuration has the point symmetry C_1 .


 Subroutine INISYM returns: Found  1 space group operations
 (whereof  1 operations are pure point group operations),
 and found     1 'primitive' translations

 
 
 KPOINTS: K-Path Generated by VASPKIT.            
  interpolating k-points between supplied coordinates
  k-points in reciprocal lattice
Space group operators:
 irot       det(A)        alpha          n_x          n_y          n_z        tau_x        tau_y        tau_z
    1     1.000000     0.000000     1.000000     0.000000     0.000000     0.000000     0.000000     0.000000


--------------------------------------------------------------------------------------------------------




 Dimension of arrays:
   k-points           NKPTS =    140   k-points in BZ     NKDIM =    140   number of bands    NBANDS=     68
   number of dos      NEDOS =    301   number of ions     NIONS =     12
   non local maximal  LDIM  =      6   non local SUM 2l+1 LMDIM =     18
   total plane-waves  NPLWV =  90000
   max r-space proj   IRMAX =      1   max aug-charges    IRDMAX=  20434
   dimension x,y,z NGX =    30 NGY =   50 NGZ =   60
   dimension x,y,z NGXF=    60 NGYF=  100 NGZF=  120
   support grid    NGXF=    60 NGYF=  100 NGZF=  120
   ions per type =               8   1   3
   NGX,Y,Z   is equivalent  to a cutoff of  11.95, 12.30, 12.19 a.u.
   NGXF,Y,Z  is equivalent  to a cutoff of  23.90, 24.61, 24.38 a.u.

 SYSTEM =  Ag2SeS                                  
 POSCAR =  Ag8Se1S3                                

 Startparameter for this run:
   NWRITE =      2    write-flag & timer
   PREC   = accura    normal or accurate (medium, high low for compatibility)
   ISTART =      0    job   : 0-new  1-cont  2-samecut
   ICHARG =     11    charge: 1-file 2-atom 10-const
   ISPIN  =      1    spin polarized calculation?
   LNONCOLLINEAR =      F non collinear calculations
   LSORBIT =      F    spin-orbit coupling
   INIWAV =      1    electr: 0-lowe 1-rand  2-diag
   LASPH  =      F    aspherical Exc in radial PAW
   METAGGA=      F    non-selfconsistent MetaGGA calc.

 Electronic Relaxation 1
   ENCUT  =  500.0 eV  36.75 Ry    6.06 a.u.   7.61 12.32 14.92*2*pi/ulx,y,z
   ENINI  =  500.0     initial cutoff
   ENAUG  =  446.8 eV  augmentation charge cutoff
   NELM   =     60;   NELMIN=  2; NELMDL=  0     # of ELM steps 
   EDIFF  = 0.1E-03   stopping-criterion for ELM
   LREAL  =      F    real-space projection
   NLSPLINE    = F    spline interpolate recip. space projectors
   LCOMPAT=      F    compatible to vasp.4.4
   GGA_COMPAT  = T    GGA compatible to vasp.4.4-vasp.4.6
   LMAXPAW     = -100 max onsite density
   LMAXMIX     =    2 max onsite mixed and CHGCAR
   VOSKOWN=      0    Vosko Wilk Nusair interpolation
   ROPT   =    0.00000   0.00000   0.00000
 Ionic relaxation
   EDIFFG = 0.1E-02   stopping-criterion for IOM
   NSW    =      0    number of steps for IOM
   NBLOCK =      1;   KBLOCK =      1    inner block; outer block 
   IBRION =     -1    ionic relax: 0-MD 1-quasi-New 2-CG
   NFREE  =      0    steps in history (QN), initial steepest desc. (CG)
   ISIF   =      2    stress and relaxation
   IWAVPR =     10    prediction:  0-non 1-charg 2-wave 3-comb
   ISYM   =      2    0-nonsym 1-usesym 2-fastsym
   LCORR  =      T    Harris-Foulkes like correction to forces

   POTIM  = 0.5000    time-step for ionic-motion
   TEIN   =    0.0    initial temperature
   TEBEG  =    0.0;   TEEND  =   0.0 temperature during run
   SMASS  =  -3.00    Nose mass-parameter (am)
   estimated Nose-frequenzy (Omega)   =  0.10E-29 period in steps =****** mass=  -0.398E-27a.u.
   SCALEE = 1.0000    scale energy and forces
   NPACO  =    256;   APACO  = 16.0  distance and # of slots for P.C.
   PSTRESS=    0.0 pullay stress

  Mass of Ions in am
   POMASS = 107.87 78.96 32.07
  Ionic Valenz
   ZVAL   =  11.00  6.00  6.00
  Atomic Wigner-Seitz radii
   RWIGS  =  -1.00 -1.00 -1.00
  virtual crystal weights 
   VCA    =   1.00  1.00  1.00
   NELECT =     112.0000    total number of electrons
   NUPDOWN=      -1.0000    fix difference up-down

 DOS related values:
   EMIN   =  10.00;   EMAX   =-10.00  energy-range for DOS
   EFERMI =   0.00
   ISMEAR =     1;   SIGMA  =   0.01  broadening in eV -4-tet -1-fermi 0-gaus

 Electronic relaxation 2 (details)
   IALGO  =     38    algorithm
   LDIAG  =      T    sub-space diagonalisation (order eigenvalues)
   LSUBROT=      F    optimize rotation matrix (better conditioning)
   TURBO    =      0    0=normal 1=particle mesh
   IRESTART =      0    0=no restart 2=restart with 2 vectors
   NREBOOT  =      0    no. of reboots
   NMIN     =      0    reboot dimension
   EREF     =   0.00    reference energy to select bands
   IMIX   =      4    mixing-type and parameters
     AMIX     =   0.40;   BMIX     =  1.00
     AMIX_MAG =   1.60;   BMIX_MAG =  1.00
     AMIN     =   0.10
     WC   =   100.;   INIMIX=   1;  MIXPRE=   1;  MAXMIX= -45

 Intra band minimization:
   WEIMIN = 0.0000     energy-eigenvalue tresh-hold
   EBREAK =  0.37E-06  absolut break condition
   DEPER  =   0.30     relativ break condition  

   TIME   =   0.40     timestep for ELM

  volume/ion in A,a.u.               =      18.22       122.97
  Fermi-wavevector in a.u.,A,eV,Ry     =   1.309831  2.475222 23.342943  1.715658
  Thomas-Fermi vector in A             =   2.440403
 
 Write flags
   LWAVE        =      F    write WAVECAR
   LDOWNSAMPLE  =      F    k-point downsampling of WAVECAR
   LCHARG       =      T    write CHGCAR
   LVTOT        =      F    write LOCPOT, total local potential
   LVHAR        =      T    write LOCPOT, Hartree potential only
   LELF         =      F    write electronic localiz. function (ELF)
   LORBIT       =      0    0 simple, 1 ext, 2 COOP (PROOUT), +10 PAW based schemes


 Dipole corrections
   LMONO  =      F    monopole corrections only (constant potential shift)
   LDIPOL =      F    correct potential (dipole corrections)
   IDIPOL =      0    1-x, 2-y, 3-z, 4-all directions 
   EPSILON=  1.0000000 bulk dielectric constant

 LDA+U is selected, type is set to LDAUTYPE =  2
   angular momentum for each species LDAUL =     2   -1   -1
   U (eV)           for each species LDAUU =   2.0  0.0  0.0
   J (eV)           for each species LDAUJ =   0.0  0.0  0.0
 Exchange correlation treatment:
   GGA     =    --    GGA type
   LEXCH   =     8    internal setting for exchange type
   VOSKOWN=      0    Vosko Wilk Nusair interpolation
   LHFCALC =     F    Hartree Fock is set to
   LHFONE  =     F    Hartree Fock one center treatment
   AEXX    =    0.0000 exact exchange contribution

 Linear response parameters
   LEPSILON=     F    determine dielectric tensor
   LRPA    =     F    only Hartree local field effects (RPA)
   LNABLA  =     F    use nabla operator in PAW spheres
   LVEL    =     F    velocity operator in full k-point grid
   LINTERFAST=   F  fast interpolation
   KINTER  =     0    interpolate to denser k-point grid
   CSHIFT  =0.1000    complex shift for real part using Kramers Kronig
   OMEGAMAX=  -1.0    maximum frequency
   DEG_THRESHOLD= 0.2000000E-02 threshold for treating states as degnerate
   RTIME   =   -0.100 relaxation time in fs
  (WPLASMAI=    0.000 imaginary part of plasma frequency in eV, 0.658/RTIME)
   DFIELD  = 0.0000000 0.0000000 0.0000000 field for delta impulse in time
 
 Orbital magnetization related:
   ORBITALMAG=     F  switch on orbital magnetization
   LCHIMAG   =     F  perturbation theory with respect to B field
   DQ        =  0.001000  dq finite difference perturbation B field
   LLRAUG    =     F  two centre corrections for induced B field



--------------------------------------------------------------------------------------------------------


 Static calculation
 charge density and potential remain constant during run
 non-spin polarized calculation
 Variant of blocked Davidson
 Davidson routine will perform the subspace rotation
 perform sub-space diagonalisation
    after iterative eigenvector-optimisation
 no mixing
 using additional bands           12
 reciprocal scheme for non local part
 use partial core corrections
 calculate Harris-corrections to forces 
   (improved forces if not selfconsistent)
 use gradient corrections 
 WARNING: stress and forces are not correct
  (second derivative of E(xc) not defined)
 use of overlap-Matrix (Vanderbilt PP)
 Methfessel and Paxton  Order N= 1 SIGMA  =   0.01


--------------------------------------------------------------------------------------------------------


  energy-cutoff  :      500.00
  volume of cell :      218.67
      direct lattice vectors                 reciprocal lattice vectors
     4.173966496  0.040003557  0.031058567     0.238989593 -0.002177536  0.082185279
     0.077251687  6.754702321 -0.045674153    -0.001425631  0.148067266  0.000879571
    -2.661447624 -0.071588137  7.737424559    -0.000967737  0.000882784  0.128917266

  length of vectors
     4.174273736  6.755298468  8.182674815     0.252735409  0.148076741  0.128923920


 
 k-points in units of 2pi/SCALE and weight: K-Path Generated by VASPKIT.            
   0.00000000  0.00000000  0.00000000       0.007
   0.00628920 -0.00005730  0.00216277       0.007
   0.01257840 -0.00011461  0.00432554       0.007
   0.01886760 -0.00017191  0.00648831       0.007
   0.02515680 -0.00022921  0.00865108       0.007
   0.03144600 -0.00028652  0.01081385       0.007
   0.03773520 -0.00034382  0.01297662       0.007
   0.04402440 -0.00040113  0.01513939       0.007
   0.05031360 -0.00045843  0.01730216       0.007
   0.05660280 -0.00051573  0.01946493       0.007
   0.06289200 -0.00057304  0.02162771       0.007
   0.06918120 -0.00063034  0.02379048       0.007
   0.07547040 -0.00068764  0.02595325       0.007
   0.08175960 -0.00074495  0.02811602       0.007
   0.08804880 -0.00080225  0.03027879       0.007
   0.09433800 -0.00085955  0.03244156       0.007
   0.10062720 -0.00091686  0.03460433       0.007
   0.10691640 -0.00097416  0.03676710       0.007
   0.11320560 -0.00103146  0.03892987       0.007
   0.11949480 -0.00108877  0.04109264       0.007
  -0.00071282  0.07403363  0.00043979       0.007
  -0.00067530  0.07013713  0.00041664       0.007
  -0.00063778  0.06624062  0.00039349       0.007
  -0.00060027  0.06234411  0.00037035       0.007
  -0.00056275  0.05844761  0.00034720       0.007
  -0.00052523  0.05455110  0.00032405       0.007
  -0.00048772  0.05065459  0.00030091       0.007
  -0.00045020  0.04675808  0.00027776       0.007
  -0.00041268  0.04286158  0.00025461       0.007
  -0.00037517  0.03896507  0.00023147       0.007
  -0.00033765  0.03506856  0.00020832       0.007
  -0.00030013  0.03117206  0.00018517       0.007
  -0.00026262  0.02727555  0.00016203       0.007
  -0.00022510  0.02337904  0.00013888       0.007
  -0.00018758  0.01948254  0.00011573       0.007
  -0.00015007  0.01558603  0.00009259       0.007
  -0.00011255  0.01168952  0.00006944       0.007
  -0.00007503  0.00779301  0.00004629       0.007
  -0.00003752  0.00389651  0.00002315       0.007
   0.00000000  0.00000000  0.00000000       0.007
   0.00000000  0.00000000  0.00000000       0.007
  -0.00002547  0.00002323  0.00339256       0.007
  -0.00005093  0.00004646  0.00678512       0.007
  -0.00007640  0.00006969  0.01017768       0.007
  -0.00010187  0.00009292  0.01357024       0.007
  -0.00012733  0.00011616  0.01696280       0.007
  -0.00015280  0.00013939  0.02035536       0.007
  -0.00017827  0.00016262  0.02374792       0.007
  -0.00020373  0.00018585  0.02714048       0.007
  -0.00022920  0.00020908  0.03053304       0.007
  -0.00025467  0.00023231  0.03392560       0.007
  -0.00028013  0.00025554  0.03731816       0.007
  -0.00030560  0.00027877  0.04071072       0.007
  -0.00033107  0.00030201  0.04410328       0.007
  -0.00035653  0.00032524  0.04749583       0.007
  -0.00038200  0.00034847  0.05088839       0.007
  -0.00040747  0.00037170  0.05428095       0.007
  -0.00043293  0.00039493  0.05767351       0.007
  -0.00045840  0.00041816  0.06106607       0.007
  -0.00048387  0.00044139  0.06445863       0.007
  -0.11926585 -0.07250347  0.02292621       0.007
  -0.11298870 -0.06868750  0.02171956       0.007
  -0.10671155 -0.06487153  0.02051292       0.007
  -0.10043440 -0.06105556  0.01930628       0.007
  -0.09415725 -0.05723958  0.01809964       0.007
  -0.08788010 -0.05342361  0.01689299       0.007
  -0.08160295 -0.04960764  0.01568635       0.007
  -0.07532580 -0.04579167  0.01447971       0.007
  -0.06904865 -0.04197569  0.01327307       0.007
  -0.06277150 -0.03815972  0.01206642       0.007
  -0.05649435 -0.03434375  0.01085978       0.007
  -0.05021720 -0.03052778  0.00965314       0.007
  -0.04394005 -0.02671181  0.00844650       0.007
  -0.03766290 -0.02289583  0.00723985       0.007
  -0.03138575 -0.01907986  0.00603321       0.007
  -0.02510860 -0.01526389  0.00482657       0.007
  -0.01883145 -0.01144792  0.00361993       0.007
  -0.01255430 -0.00763194  0.00241328       0.007
  -0.00627715 -0.00381597  0.00120664       0.007
   0.00000000  0.00000000  0.00000000       0.007
   0.00000000  0.00000000  0.00000000       0.007
   0.00001205 -0.00387328  0.00336941       0.007
   0.00002410 -0.00774655  0.00673883       0.007
   0.00003615 -0.01161983  0.01010824       0.007
   0.00004820 -0.01549310  0.01347765       0.007
   0.00006025 -0.01936638  0.01684707       0.007
   0.00007230 -0.02323965  0.02021648       0.007
   0.00008435 -0.02711293  0.02358589       0.007
   0.00009640 -0.03098621  0.02695530       0.007
   0.00010845 -0.03485948  0.03032472       0.007
   0.00012050 -0.03873276  0.03369413       0.007
   0.00013255 -0.04260603  0.03706354       0.007
   0.00014460 -0.04647931  0.04043296       0.007
   0.00015665 -0.05035259  0.04380237       0.007
   0.00016870 -0.05422586  0.04717178       0.007
   0.00018075 -0.05809914  0.05054120       0.007
   0.00019280 -0.06197241  0.05391061       0.007
   0.00020485 -0.06584569  0.05728002       0.007
   0.00021690 -0.06971896  0.06064943       0.007
   0.00022895 -0.07359224  0.06401885       0.007
  -0.11997866  0.00153016  0.02336599       0.007
  -0.11366400  0.00144963  0.02213620       0.007
  -0.10734933  0.00136909  0.02090641       0.007
  -0.10103466  0.00128856  0.01967663       0.007
  -0.09472000  0.00120802  0.01844684       0.007
  -0.08840533  0.00112749  0.01721705       0.007
  -0.08209067  0.00104695  0.01598726       0.007
  -0.07577600  0.00096642  0.01475747       0.007
  -0.06946133  0.00088588  0.01352768       0.007
  -0.06314667  0.00080535  0.01229789       0.007
  -0.05683200  0.00072481  0.01106810       0.007
  -0.05051733  0.00064428  0.00983831       0.007
  -0.04420267  0.00056374  0.00860852       0.007
  -0.03788800  0.00048321  0.00737873       0.007
  -0.03157333  0.00040267  0.00614895       0.007
  -0.02525867  0.00032214  0.00491916       0.007
  -0.01894400  0.00024160  0.00368937       0.007
  -0.01262933  0.00016107  0.00245958       0.007
  -0.00631467  0.00008053  0.00122979       0.007
   0.00000000  0.00000000  0.00000000       0.007
   0.00000000  0.00000000  0.00000000       0.007
   0.00632672 -0.00395381  0.00213962       0.007
   0.01265343 -0.00790762  0.00427925       0.007
   0.01898015 -0.01186143  0.00641887       0.007
   0.02530687 -0.01581524  0.00855850       0.007
   0.03163358 -0.01976905  0.01069812       0.007
   0.03796030 -0.02372286  0.01283774       0.007
   0.04428701 -0.02767667  0.01497737       0.007
   0.05061373 -0.03163048  0.01711699       0.007
   0.05694045 -0.03558430  0.01925661       0.007
   0.06326716 -0.03953811  0.02139624       0.007
   0.06959388 -0.04349192  0.02353586       0.007
   0.07592060 -0.04744573  0.02567549       0.007
   0.08224731 -0.05139954  0.02781511       0.007
   0.08857403 -0.05535335  0.02995473       0.007
   0.09490075 -0.05930716  0.03209436       0.007
   0.10122746 -0.06326097  0.03423398       0.007
   0.10755418 -0.06721478  0.03637361       0.007
   0.11388090 -0.07116859  0.03851323       0.007
   0.12020761 -0.07512240  0.04065285       0.007
 
 k-points in reciprocal lattice and weights: K-Path Generated by VASPKIT.            
   0.00000000  0.00000000  0.00000000       0.007
   0.02631579  0.00000000  0.00000000       0.007
   0.05263158  0.00000000  0.00000000       0.007
   0.07894737  0.00000000  0.00000000       0.007
   0.10526316  0.00000000  0.00000000       0.007
   0.13157895  0.00000000  0.00000000       0.007
   0.15789474  0.00000000  0.00000000       0.007
   0.18421053  0.00000000  0.00000000       0.007
   0.21052632  0.00000000  0.00000000       0.007
   0.23684211  0.00000000  0.00000000       0.007
   0.26315789  0.00000000  0.00000000       0.007
   0.28947368  0.00000000  0.00000000       0.007
   0.31578947  0.00000000  0.00000000       0.007
   0.34210526  0.00000000  0.00000000       0.007
   0.36842105  0.00000000  0.00000000       0.007
   0.39473684  0.00000000  0.00000000       0.007
   0.42105263  0.00000000  0.00000000       0.007
   0.44736842  0.00000000  0.00000000       0.007
   0.47368421  0.00000000  0.00000000       0.007
   0.50000000  0.00000000  0.00000000       0.007
   0.00000000  0.50000000  0.00000000       0.007
   0.00000000  0.47368421  0.00000000       0.007
   0.00000000  0.44736842  0.00000000       0.007
   0.00000000  0.42105263  0.00000000       0.007
   0.00000000  0.39473684  0.00000000       0.007
   0.00000000  0.36842105  0.00000000       0.007
   0.00000000  0.34210526  0.00000000       0.007
   0.00000000  0.31578947  0.00000000       0.007
   0.00000000  0.28947368  0.00000000       0.007
   0.00000000  0.26315789  0.00000000       0.007
   0.00000000  0.23684211  0.00000000       0.007
   0.00000000  0.21052632  0.00000000       0.007
   0.00000000  0.18421053  0.00000000       0.007
   0.00000000  0.15789474  0.00000000       0.007
   0.00000000  0.13157895  0.00000000       0.007
   0.00000000  0.10526316  0.00000000       0.007
   0.00000000  0.07894737  0.00000000       0.007
   0.00000000  0.05263158  0.00000000       0.007
   0.00000000  0.02631579  0.00000000       0.007
   0.00000000  0.00000000  0.00000000       0.007
   0.00000000  0.00000000  0.00000000       0.007
   0.00000000  0.00000000  0.02631579       0.007
   0.00000000  0.00000000  0.05263158       0.007
   0.00000000  0.00000000  0.07894737       0.007
   0.00000000  0.00000000  0.10526316       0.007
   0.00000000  0.00000000  0.13157895       0.007
   0.00000000  0.00000000  0.15789474       0.007
   0.00000000  0.00000000  0.18421053       0.007
   0.00000000  0.00000000  0.21052632       0.007
   0.00000000  0.00000000  0.23684211       0.007
   0.00000000  0.00000000  0.26315789       0.007
   0.00000000  0.00000000  0.28947368       0.007
   0.00000000  0.00000000  0.31578947       0.007
   0.00000000  0.00000000  0.34210526       0.007
   0.00000000  0.00000000  0.36842105       0.007
   0.00000000  0.00000000  0.39473684       0.007
   0.00000000  0.00000000  0.42105263       0.007
   0.00000000  0.00000000  0.44736842       0.007
   0.00000000  0.00000000  0.47368421       0.007
   0.00000000  0.00000000  0.50000000       0.007
  -0.50000000 -0.50000000  0.50000000       0.007
  -0.47368421 -0.47368421  0.47368421       0.007
  -0.44736842 -0.44736842  0.44736842       0.007
  -0.42105263 -0.42105263  0.42105263       0.007
  -0.39473684 -0.39473684  0.39473684       0.007
  -0.36842105 -0.36842105  0.36842105       0.007
  -0.34210526 -0.34210526  0.34210526       0.007
  -0.31578947 -0.31578947  0.31578947       0.007
  -0.28947368 -0.28947368  0.28947368       0.007
  -0.26315789 -0.26315789  0.26315789       0.007
  -0.23684211 -0.23684211  0.23684211       0.007
  -0.21052632 -0.21052632  0.21052632       0.007
  -0.18421053 -0.18421053  0.18421053       0.007
  -0.15789474 -0.15789474  0.15789474       0.007
  -0.13157895 -0.13157895  0.13157895       0.007
  -0.10526316 -0.10526316  0.10526316       0.007
  -0.07894737 -0.07894737  0.07894737       0.007
  -0.05263158 -0.05263158  0.05263158       0.007
  -0.02631579 -0.02631579  0.02631579       0.007
   0.00000000  0.00000000  0.00000000       0.007
   0.00000000  0.00000000  0.00000000       0.007
   0.00000000 -0.02631579  0.02631579       0.007
   0.00000000 -0.05263158  0.05263158       0.007
   0.00000000 -0.07894737  0.07894737       0.007
   0.00000000 -0.10526316  0.10526316       0.007
   0.00000000 -0.13157895  0.13157895       0.007
   0.00000000 -0.15789474  0.15789474       0.007
   0.00000000 -0.18421053  0.18421053       0.007
   0.00000000 -0.21052632  0.21052632       0.007
   0.00000000 -0.23684211  0.23684211       0.007
   0.00000000 -0.26315789  0.26315789       0.007
   0.00000000 -0.28947368  0.28947368       0.007
   0.00000000 -0.31578947  0.31578947       0.007
   0.00000000 -0.34210526  0.34210526       0.007
   0.00000000 -0.36842105  0.36842105       0.007
   0.00000000 -0.39473684  0.39473684       0.007
   0.00000000 -0.42105263  0.42105263       0.007
   0.00000000 -0.44736842  0.44736842       0.007
   0.00000000 -0.47368421  0.47368421       0.007
   0.00000000 -0.50000000  0.50000000       0.007
  -0.50000000  0.00000000  0.50000000       0.007
  -0.47368421  0.00000000  0.47368421       0.007
  -0.44736842  0.00000000  0.44736842       0.007
  -0.42105263  0.00000000  0.42105263       0.007
  -0.39473684  0.00000000  0.39473684       0.007
  -0.36842105  0.00000000  0.36842105       0.007
  -0.34210526  0.00000000  0.34210526       0.007
  -0.31578947  0.00000000  0.31578947       0.007
  -0.28947368  0.00000000  0.28947368       0.007
  -0.26315789  0.00000000  0.26315789       0.007
  -0.23684211  0.00000000  0.23684211       0.007
  -0.21052632  0.00000000  0.21052632       0.007
  -0.18421053  0.00000000  0.18421053       0.007
  -0.15789474  0.00000000  0.15789474       0.007
  -0.13157895  0.00000000  0.13157895       0.007
  -0.10526316  0.00000000  0.10526316       0.007
  -0.07894737  0.00000000  0.07894737       0.007
  -0.05263158  0.00000000  0.05263158       0.007
  -0.02631579  0.00000000  0.02631579       0.007
   0.00000000  0.00000000  0.00000000       0.007
   0.00000000  0.00000000  0.00000000       0.007
   0.02631579 -0.02631579  0.00000000       0.007
   0.05263158 -0.05263158  0.00000000       0.007
   0.07894737 -0.07894737  0.00000000       0.007
   0.10526316 -0.10526316  0.00000000       0.007
   0.13157895 -0.13157895  0.00000000       0.007
   0.15789474 -0.15789474  0.00000000       0.007
   0.18421053 -0.18421053  0.00000000       0.007
   0.21052632 -0.21052632  0.00000000       0.007
   0.23684211 -0.23684211  0.00000000       0.007
   0.26315789 -0.26315789  0.00000000       0.007
   0.28947368 -0.28947368  0.00000000       0.007
   0.31578947 -0.31578947  0.00000000       0.007
   0.34210526 -0.34210526  0.00000000       0.007
   0.36842105 -0.36842105  0.00000000       0.007
   0.39473684 -0.39473684  0.00000000       0.007
   0.42105263 -0.42105263  0.00000000       0.007
   0.44736842 -0.44736842  0.00000000       0.007
   0.47368421 -0.47368421  0.00000000       0.007
   0.50000000 -0.50000000  0.00000000       0.007
 
 position of ions in fractional coordinates (direct lattice) 
   0.60290165  0.46910495  0.83919379
   0.34983914  0.53472779  0.13982921
   0.23325935  0.36147660  0.45850362
   0.42407940  0.98074604  0.66469326
   0.58606029  0.01369747  0.34296598
   0.78817888  0.64850067  0.55344556
   0.19658763  0.14411060  0.94376314
   0.79999140  0.84498749  0.05264226
   0.81577023  0.25032526  0.15021207
   0.17701423  0.74839369  0.36489485
   0.19497113  0.75420135  0.85139013
   0.83134669  0.24972808  0.63846614
 
 position of ions in cartesian coordinates  (Angst):
   0.31926012  3.13270619  6.49049794
   1.12937735  3.61591173  1.06836019
  -0.21874198  2.41817465  3.53837177
   0.07681121  6.59402810  5.11139048
   1.53446815  0.09141456  2.67124998
   1.86696362  4.37233881  4.27710329
  -1.68009323  0.91372616  7.30181973
   3.26430937  5.73587291  0.39356803
   3.02455409  1.71275294  1.17615784
  -0.17448237  5.03613566  2.79466190
  -1.39386398  5.04125573  6.55917494
   1.79006095  1.67438905  4.95449789
 


--------------------------------------------------------------------------------------------------------


 k-point  1 :   0.0000 0.0000 0.0000  plane waves:    5559
 k-point  2 :   0.0263 0.0000 0.0000  plane waves:    5562
 k-point  3 :   0.0526 0.0000 0.0000  plane waves:    5566
 k-point  4 :   0.0789 0.0000 0.0000  plane waves:    5572
 k-point  5 :   0.1053 0.0000 0.0000  plane waves:    5566
 k-point  6 :   0.1316 0.0000 0.0000  plane waves:    5569
 k-point  7 :   0.1579 0.0000 0.0000  plane waves:    5566
 k-point  8 :   0.1842 0.0000 0.0000  plane waves:    5555
 k-point  9 :   0.2105 0.0000 0.0000  plane waves:    5552
 k-point 10 :   0.2368 0.0000 0.0000  plane waves:    5542
 k-point 11 :   0.2632 0.0000 0.0000  plane waves:    5539
 k-point 12 :   0.2895 0.0000 0.0000  plane waves:    5543
 k-point 13 :   0.3158 0.0000 0.0000  plane waves:    5530
 k-point 14 :   0.3421 0.0000 0.0000  plane waves:    5532
 k-point 15 :   0.3684 0.0000 0.0000  plane waves:    5533
 k-point 16 :   0.3947 0.0000 0.0000  plane waves:    5530
 k-point 17 :   0.4211 0.0000 0.0000  plane waves:    5541
 k-point 18 :   0.4474 0.0000 0.0000  plane waves:    5547
 k-point 19 :   0.4737 0.0000 0.0000  plane waves:    5554
 k-point 20 :   0.5000 0.0000 0.0000  plane waves:    5560
 k-point 21 :   0.0000 0.5000 0.0000  plane waves:    5568
 k-point 22 :   0.0000 0.4737 0.0000  plane waves:    5562
 k-point 23 :   0.0000 0.4474 0.0000  plane waves:    5559
 k-point 24 :   0.0000 0.4211 0.0000  plane waves:    5555
 k-point 25 :   0.0000 0.3947 0.0000  plane waves:    5554
 k-point 26 :   0.0000 0.3684 0.0000  plane waves:    5554
 k-point 27 :   0.0000 0.3421 0.0000  plane waves:    5557
 k-point 28 :   0.0000 0.3158 0.0000  plane waves:    5556
 k-point 29 :   0.0000 0.2895 0.0000  plane waves:    5559
 k-point 30 :   0.0000 0.2632 0.0000  plane waves:    5566
 k-point 31 :   0.0000 0.2368 0.0000  plane waves:    5572
 k-point 32 :   0.0000 0.2105 0.0000  plane waves:    5563
 k-point 33 :   0.0000 0.1842 0.0000  plane waves:    5562
 k-point 34 :   0.0000 0.1579 0.0000  plane waves:    5568
 k-point 35 :   0.0000 0.1316 0.0000  plane waves:    5566
 k-point 36 :   0.0000 0.1053 0.0000  plane waves:    5563
 k-point 37 :   0.0000 0.0789 0.0000  plane waves:    5566
 k-point 38 :   0.0000 0.0526 0.0000  plane waves:    5565
 k-point 39 :   0.0000 0.0263 0.0000  plane waves:    5563
 k-point 40 :   0.0000 0.0000 0.0000  plane waves:    5559
 k-point 41 :   0.0000 0.0000 0.0000  plane waves:    5559
 k-point 42 :   0.0000 0.0000 0.0263  plane waves:    5565
 k-point 43 :   0.0000 0.0000 0.0526  plane waves:    5562
 k-point 44 :   0.0000 0.0000 0.0789  plane waves:    5569
 k-point 45 :   0.0000 0.0000 0.1053  plane waves:    5571
 k-point 46 :   0.0000 0.0000 0.1316  plane waves:    5575
 k-point 47 :   0.0000 0.0000 0.1579  plane waves:    5573
 k-point 48 :   0.0000 0.0000 0.1842  plane waves:    5571
 k-point 49 :   0.0000 0.0000 0.2105  plane waves:    5574
 k-point 50 :   0.0000 0.0000 0.2368  plane waves:    5576
 k-point 51 :   0.0000 0.0000 0.2632  plane waves:    5578
 k-point 52 :   0.0000 0.0000 0.2895  plane waves:    5580
 k-point 53 :   0.0000 0.0000 0.3158  plane waves:    5577
 k-point 54 :   0.0000 0.0000 0.3421  plane waves:    5569
 k-point 55 :   0.0000 0.0000 0.3684  plane waves:    5569
 k-point 56 :   0.0000 0.0000 0.3947  plane waves:    5569
 k-point 57 :   0.0000 0.0000 0.4211  plane waves:    5566
 k-point 58 :   0.0000 0.0000 0.4474  plane waves:    5566
 k-point 59 :   0.0000 0.0000 0.4737  plane waves:    5570
 k-point 60 :   0.0000 0.0000 0.5000  plane waves:    5570
 k-point 61 :  -0.5000-0.5000 0.5000  plane waves:    5562
 k-point 62 :  -0.4737-0.4737 0.4737  plane waves:    5552
 k-point 63 :  -0.4474-0.4474 0.4474  plane waves:    5553
 k-point 64 :  -0.4211-0.4211 0.4211  plane waves:    5552
 k-point 65 :  -0.3947-0.3947 0.3947  plane waves:    5555
 k-point 66 :  -0.3684-0.3684 0.3684  plane waves:    5551
 k-point 67 :  -0.3421-0.3421 0.3421  plane waves:    5544
 k-point 68 :  -0.3158-0.3158 0.3158  plane waves:    5540
 k-point 69 :  -0.2895-0.2895 0.2895  plane waves:    5551
 k-point 70 :  -0.2632-0.2632 0.2632  plane waves:    5553
 k-point 71 :  -0.2368-0.2368 0.2368  plane waves:    5547
 k-point 72 :  -0.2105-0.2105 0.2105  plane waves:    5553
 k-point 73 :  -0.1842-0.1842 0.1842  plane waves:    5559
 k-point 74 :  -0.1579-0.1579 0.1579  plane waves:    5567
 k-point 75 :  -0.1316-0.1316 0.1316  plane waves:    5571
 k-point 76 :  -0.1053-0.1053 0.1053  plane waves:    5571
 k-point 77 :  -0.0789-0.0789 0.0789  plane waves:    5573
 k-point 78 :  -0.0526-0.0526 0.0526  plane waves:    5572
 k-point 79 :  -0.0263-0.0263 0.0263  plane waves:    5562
 k-point 80 :   0.0000 0.0000 0.0000  plane waves:    5559
 k-point 81 :   0.0000 0.0000 0.0000  plane waves:    5559
 k-point 82 :   0.0000-0.0263 0.0263  plane waves:    5560
 k-point 83 :   0.0000-0.0526 0.0526  plane waves:    5568
 k-point 84 :   0.0000-0.0789 0.0789  plane waves:    5569
 k-point 85 :   0.0000-0.1053 0.1053  plane waves:    5569
 k-point 86 :   0.0000-0.1316 0.1316  plane waves:    5570
 k-point 87 :   0.0000-0.1579 0.1579  plane waves:    5564
 k-point 88 :   0.0000-0.1842 0.1842  plane waves:    5553
 k-point 89 :   0.0000-0.2105 0.2105  plane waves:    5548
 k-point 90 :   0.0000-0.2368 0.2368  plane waves:    5548
 k-point 91 :   0.0000-0.2632 0.2632  plane waves:    5557
 k-point 92 :   0.0000-0.2895 0.2895  plane waves:    5560
 k-point 93 :   0.0000-0.3158 0.3158  plane waves:    5556
 k-point 94 :   0.0000-0.3421 0.3421  plane waves:    5557
 k-point 95 :   0.0000-0.3684 0.3684  plane waves:    5563
 k-point 96 :   0.0000-0.3947 0.3947  plane waves:    5558
 k-point 97 :   0.0000-0.4211 0.4211  plane waves:    5552
 k-point 98 :   0.0000-0.4474 0.4474  plane waves:    5544
 k-point 99 :   0.0000-0.4737 0.4737  plane waves:    5542
 k-point ** :   0.0000-0.5000 0.5000  plane waves:    5548
 k-point ** :  -0.5000 0.0000 0.5000  plane waves:    5540
 k-point ** :  -0.4737 0.0000 0.4737  plane waves:    5537
 k-point ** :  -0.4474 0.0000 0.4474  plane waves:    5541
 k-point ** :  -0.4211 0.0000 0.4211  plane waves:    5531
 k-point ** :  -0.3947 0.0000 0.3947  plane waves:    5533
 k-point ** :  -0.3684 0.0000 0.3684  plane waves:    5539
 k-point ** :  -0.3421 0.0000 0.3421  plane waves:    5543
 k-point ** :  -0.3158 0.0000 0.3158  plane waves:    5541
 k-point ** :  -0.2895 0.0000 0.2895  plane waves:    5554
 k-point ** :  -0.2632 0.0000 0.2632  plane waves:    5562
 k-point ** :  -0.2368 0.0000 0.2368  plane waves:    5566
 k-point ** :  -0.2105 0.0000 0.2105  plane waves:    5568
 k-point ** :  -0.1842 0.0000 0.1842  plane waves:    5568
 k-point ** :  -0.1579 0.0000 0.1579  plane waves:    5573
 k-point ** :  -0.1316 0.0000 0.1316  plane waves:    5575
 k-point ** :  -0.1053 0.0000 0.1053  plane waves:    5571
 k-point ** :  -0.0789 0.0000 0.0789  plane waves:    5569
 k-point ** :  -0.0526 0.0000 0.0526  plane waves:    5562
 k-point ** :  -0.0263 0.0000 0.0263  plane waves:    5559
 k-point ** :   0.0000 0.0000 0.0000  plane waves:    5559
 k-point ** :   0.0000 0.0000 0.0000  plane waves:    5559
 k-point ** :   0.0263-0.0263 0.0000  plane waves:    5564
 k-point ** :   0.0526-0.0526 0.0000  plane waves:    5566
 k-point ** :   0.0789-0.0789 0.0000  plane waves:    5570
 k-point ** :   0.1053-0.1053 0.0000  plane waves:    5576
 k-point ** :   0.1316-0.1316 0.0000  plane waves:    5572
 k-point ** :   0.1579-0.1579 0.0000  plane waves:    5557
 k-point ** :   0.1842-0.1842 0.0000  plane waves:    5556
 k-point ** :   0.2105-0.2105 0.0000  plane waves:    5552
 k-point ** :   0.2368-0.2368 0.0000  plane waves:    5553
 k-point ** :   0.2632-0.2632 0.0000  plane waves:    5550
 k-point ** :   0.2895-0.2895 0.0000  plane waves:    5547
 k-point ** :   0.3158-0.3158 0.0000  plane waves:    5540
 k-point ** :   0.3421-0.3421 0.0000  plane waves:    5543
 k-point ** :   0.3684-0.3684 0.0000  plane waves:    5543
 k-point ** :   0.3947-0.3947 0.0000  plane waves:    5540
 k-point ** :   0.4211-0.4211 0.0000  plane waves:    5535
 k-point ** :   0.4474-0.4474 0.0000  plane waves:    5532
 k-point ** :   0.4737-0.4737 0.0000  plane waves:    5536
 k-point ** :   0.5000-0.5000 0.0000  plane waves:    5522

 maximum and minimum number of plane-waves per node :      1409     1368

 maximum number of plane-waves:      5580
 maximum index in each direction: 
   IXMAX=    8   IYMAX=   12   IZMAX=   14
   IXMIN=   -8   IYMIN=  -12   IZMIN=  -15


 parallel 3D FFT for wavefunctions:
    minimum data exchange during FFTs selected (reduces bandwidth)
 parallel 3D FFT for charge:
    minimum data exchange during FFTs selected (reduces bandwidth)


 total amount of memory used by VASP MPI-rank0   176280. kBytes
=======================================================================

   base      :      30000. kBytes
   nonl-proj :      84698. kBytes
   fftplans  :       2321. kBytes
   grid      :       4076. kBytes
   one-center:         46. kBytes
   wavefun   :      55139. kBytes
 
     INWAV:  cpu time    0.0000: real time    0.0000
 initial charge density was supplied:
 number of electron     112.0000007 magnetization 
 keeping initial charge density in first step


--------------------------------------------------------------------------------------------------------


 Maximum index for augmentation-charges         1413 (set IRDMAX)


--------------------------------------------------------------------------------------------------------


 First call to EWALD:  gamma=   0.294
 Maximum number of real-space cells 4x 3x 2
 Maximum number of reciprocal cells 2x 3x 4

    FEWALD:  cpu time    0.0015: real time    0.0020


--------------------------------------- Iteration      1(   1)  ---------------------------------------


    POTLOK:  cpu time    0.0284: real time    0.0294
    SETDIJ:  cpu time    0.0043: real time    0.0043
     EDDAV:  cpu time    8.7937: real time    8.7944
       DOS:  cpu time    0.0051: real time    0.0051
    --------------------------------------------
      LOOP:  cpu time    8.8315: real time    8.8331

 eigenvalue-minimisations  : 19040
 total energy-change (2. order) : 0.7676049E+03  (-0.5541337E+04)
 number of electron     112.0000007 magnetization 
 augmentation part      112.0000007 magnetization 

 Free energy of the ion-electron system (eV)
  ---------------------------------------------------
  alpha Z        PSCENC =       385.25820800
  Ewald energy   TEWEN  =     -8472.90304761
  -Hartree energ DENC   =     -1965.06843580
  -exchange      EXHF   =         0.00000000
  -V(xc)+E(xc)   XCENC  =       -48.63334982
  PAW double counting   =     11119.92964619   -10668.01730102
  entropy T*S    EENTRO =        -0.00001529
  eigenvalues    EBANDS =      1031.34979638
  atomic energy  EATOM  =      9385.68939871
  Solvation  Ediel_sol  =         0.00000000
  ---------------------------------------------------
  free energy    TOTEN  =       767.60489974 eV

  energy without entropy =      767.60491503  energy(sigma->0) =      767.60490484


--------------------------------------------------------------------------------------------------------




--------------------------------------- Iteration      1(   2)  ---------------------------------------


     EDDAV:  cpu time    9.2328: real time    9.2332
       DOS:  cpu time    0.0052: real time    0.0052
    --------------------------------------------
      LOOP:  cpu time    9.2380: real time    9.2384

 eigenvalue-minimisations  : 20364
 total energy-change (2. order) :-0.7595721E+03  (-0.7292454E+03)
 number of electron     112.0000007 magnetization 
 augmentation part      112.0000007 magnetization 

 Free energy of the ion-electron system (eV)
  ---------------------------------------------------
  alpha Z        PSCENC =       385.25820800
  Ewald energy   TEWEN  =     -8472.90304761
  -Hartree energ DENC   =     -1965.06843580
  -exchange      EXHF   =         0.00000000
  -V(xc)+E(xc)   XCENC  =       -48.63334982
  PAW double counting   =     11119.92964619   -10668.01730102
  entropy T*S    EENTRO =        -0.00006480
  eigenvalues    EBANDS =       271.77773471
  atomic energy  EATOM  =      9385.68939871
  Solvation  Ediel_sol  =         0.00000000
  ---------------------------------------------------
  free energy    TOTEN  =         8.03278856 eV

  energy without entropy =        8.03285336  energy(sigma->0) =        8.03281016


--------------------------------------------------------------------------------------------------------




--------------------------------------- Iteration      1(   3)  ---------------------------------------


     EDDAV:  cpu time    9.4087: real time    9.4089
       DOS:  cpu time    0.0068: real time    0.0068
    --------------------------------------------
      LOOP:  cpu time    9.4156: real time    9.4157

 eigenvalue-minimisations  : 21368
 total energy-change (2. order) :-0.3791561E+02  (-0.3704568E+02)
 number of electron     112.0000007 magnetization 
 augmentation part      112.0000007 magnetization 

 Free energy of the ion-electron system (eV)
  ---------------------------------------------------
  alpha Z        PSCENC =       385.25820800
  Ewald energy   TEWEN  =     -8472.90304761
  -Hartree energ DENC   =     -1965.06843580
  -exchange      EXHF   =         0.00000000
  -V(xc)+E(xc)   XCENC  =       -48.63334982
  PAW double counting   =     11119.92964619   -10668.01730102
  entropy T*S    EENTRO =        -0.00005257
  eigenvalues    EBANDS =       233.86211219
  atomic energy  EATOM  =      9385.68939871
  Solvation  Ediel_sol  =         0.00000000
  ---------------------------------------------------
  free energy    TOTEN  =       -29.88282173 eV

  energy without entropy =      -29.88276916  energy(sigma->0) =      -29.88280421


--------------------------------------------------------------------------------------------------------




--------------------------------------- Iteration      1(   4)  ---------------------------------------


     EDDAV:  cpu time    9.3449: real time    9.3446
       DOS:  cpu time    0.0047: real time    0.0047
    --------------------------------------------
      LOOP:  cpu time    9.3496: real time    9.3493

 eigenvalue-minimisations  : 21324
 total energy-change (2. order) :-0.6583644E+00  (-0.6540031E+00)
 number of electron     112.0000007 magnetization 
 augmentation part      112.0000007 magnetization 

 Free energy of the ion-electron system (eV)
  ---------------------------------------------------
  alpha Z        PSCENC =       385.25820800
  Ewald energy   TEWEN  =     -8472.90304761
  -Hartree energ DENC   =     -1965.06843580
  -exchange      EXHF   =         0.00000000
  -V(xc)+E(xc)   XCENC  =       -48.63334982
  PAW double counting   =     11119.92964619   -10668.01730102
  entropy T*S    EENTRO =         0.00014153
  eigenvalues    EBANDS =       233.20355370
  atomic energy  EATOM  =      9385.68939871
  Solvation  Ediel_sol  =         0.00000000
  ---------------------------------------------------
  free energy    TOTEN  =       -30.54118612 eV

  energy without entropy =      -30.54132765  energy(sigma->0) =      -30.54123330


--------------------------------------------------------------------------------------------------------




--------------------------------------- Iteration      1(   5)  ---------------------------------------


     EDDAV:  cpu time    9.1206: real time    9.1203
       DOS:  cpu time    0.0050: real time    0.0050
    --------------------------------------------
      LOOP:  cpu time    9.1256: real time    9.1253

 eigenvalue-minimisations  : 20940
 total energy-change (2. order) :-0.9214658E-02  (-0.9209553E-02)
 number of electron     112.0000007 magnetization 
 augmentation part      112.0000007 magnetization 

 Free energy of the ion-electron system (eV)
  ---------------------------------------------------
  alpha Z        PSCENC =       385.25820800
  Ewald energy   TEWEN  =     -8472.90304761
  -Hartree energ DENC   =     -1965.06843580
  -exchange      EXHF   =         0.00000000
  -V(xc)+E(xc)   XCENC  =       -48.63334982
  PAW double counting   =     11119.92964619   -10668.01730102
  entropy T*S    EENTRO =         0.00014540
  eigenvalues    EBANDS =       233.19433517
  atomic energy  EATOM  =      9385.68939871
  Solvation  Ediel_sol  =         0.00000000
  ---------------------------------------------------
  free energy    TOTEN  =       -30.55040078 eV

  energy without entropy =      -30.55054618  energy(sigma->0) =      -30.55044925


--------------------------------------------------------------------------------------------------------




--------------------------------------- Iteration      1(   6)  ---------------------------------------


     EDDAV:  cpu time    9.2146: real time    9.2143
       DOS:  cpu time    0.0051: real time    0.0051
    --------------------------------------------
      LOOP:  cpu time    9.2196: real time    9.2194

 eigenvalue-minimisations  : 21248
 total energy-change (2. order) :-0.2434327E-03  (-0.2433903E-03)
 number of electron     112.0000007 magnetization 
 augmentation part      112.0000007 magnetization 

 Free energy of the ion-electron system (eV)
  ---------------------------------------------------
  alpha Z        PSCENC =       385.25820800
  Ewald energy   TEWEN  =     -8472.90304761
  -Hartree energ DENC   =     -1965.06843580
  -exchange      EXHF   =         0.00000000
  -V(xc)+E(xc)   XCENC  =       -48.63334982
  PAW double counting   =     11119.92964619   -10668.01730102
  entropy T*S    EENTRO =         0.00014566
  eigenvalues    EBANDS =       233.19409148
  atomic energy  EATOM  =      9385.68939871
  Solvation  Ediel_sol  =         0.00000000
  ---------------------------------------------------
  free energy    TOTEN  =       -30.55064421 eV

  energy without entropy =      -30.55078987  energy(sigma->0) =      -30.55069277


--------------------------------------------------------------------------------------------------------




--------------------------------------- Iteration      1(   7)  ---------------------------------------


     EDDAV:  cpu time    7.2178: real time    7.2176
       DOS:  cpu time    0.0040: real time    0.0040
    --------------------------------------------
      LOOP:  cpu time    7.2218: real time    7.2216

 eigenvalue-minimisations  : 14132
 total energy-change (2. order) :-0.8119805E-05  (-0.8119710E-05)
 number of electron     112.0000007 magnetization 
 augmentation part      112.0000007 magnetization 

 Free energy of the ion-electron system (eV)
  ---------------------------------------------------
  alpha Z        PSCENC =       385.25820800
  Ewald energy   TEWEN  =     -8472.90304761
  -Hartree energ DENC   =     -1965.06843580
  -exchange      EXHF   =         0.00000000
  -V(xc)+E(xc)   XCENC  =       -48.63334982
  PAW double counting   =     11119.92964619   -10668.01730102
  entropy T*S    EENTRO =         0.00014567
  eigenvalues    EBANDS =       233.19408334
  atomic energy  EATOM  =      9385.68939871
  Solvation  Ediel_sol  =         0.00000000
  ---------------------------------------------------
  free energy    TOTEN  =       -30.55065233 eV

  energy without entropy =      -30.55079800  energy(sigma->0) =      -30.55070089


--------------------------------------------------------------------------------------------------------




 average (electrostatic) potential at core
  the test charge radii are     1.1249  1.0808  0.9698
  (the norm of the test charge is              1.0000)
       1 -71.4683       2 -71.4399       3 -71.4933       4 -71.4178       5 -71.4029
       6 -71.4615       7 -71.5180       8 -71.5043       9 -51.5276      10 -84.8403
      11 -84.8859      12 -84.8677
 
 
 
 E-fermi :   6.7461     XC(G=0): -11.2411     alpha+bet :-12.1871


 k-point     1 :       0.0000    0.0000    0.0000
  band No.  band energies     occupation 
      1      -6.6759      2.00000
      2      -6.1926      2.00000
      3      -6.0394      2.00000
      4      -5.9534      2.00000
      5       0.4808      2.00000
      6       0.5575      2.00000
      7       0.5753      2.00000
      8       0.7569      2.00000
      9       0.7855      2.00000
     10       1.0667      2.00000
     11       1.0850      2.00000
     12       1.1549      2.00000
     13       1.2083      2.00000
     14       1.2794      2.00000
     15       1.4945      2.00000
     16       1.5494      2.00000
     17       1.6190      2.00000
     18       1.6548      2.00000
     19       1.7412      2.00000
     20       1.7893      2.00000
     21       1.9765      2.00000
     22       2.0468      2.00000
     23       2.0842      2.00000
     24       2.1411      2.00000
     25       2.2471      2.00000
     26       2.2701      2.00000
     27       2.2849      2.00000
     28       2.3277      2.00000
     29       2.4055      2.00000
     30       2.4679      2.00000
     31       2.5015      2.00000
     32       2.5583      2.00000
     33       2.6028      2.00000
     34       2.6932      2.00000
     35       2.8143      2.00000
     36       2.8511      2.00000
     37       2.8944      2.00000
     38       2.9745      2.00000
     39       2.9934      2.00000
     40       3.0495      2.00000
     41       3.0926      2.00000
     42       3.1356      2.00000
     43       3.2536      2.00000
     44       3.3605      2.00000
     45       3.3766      2.00000
     46       3.5243      2.00000
     47       3.8043      2.00000
     48       3.8963      2.00000
     49       4.7026      2.00000
     50       4.9012      2.00000
     51       5.2688      2.00000
     52       5.7208      2.00000
     53       6.1790      2.00000
     54       6.4198      2.00000
     55       6.5472      2.00000
     56       6.7384      1.96792
     57       6.7548     -0.01076
     58       7.9903      0.00000
     59       9.2822      0.00000
     60       9.4677      0.00000
     61      10.0487      0.00000
     62      11.1683      0.00000
     63      11.5037      0.00000
     64      11.8258      0.00000
     65      12.0655      0.00000
     66      12.4262      0.00000
     67      13.2088      0.00000
     68      13.3118      0.00000

 k-point     2 :       0.0263    0.0000    0.0000
  band No.  band energies     occupation 
      1      -6.6733      2.00000
      2      -6.1921      2.00000
      3      -6.0387      2.00000
      4      -5.9533      2.00000
      5       0.4805      2.00000
      6       0.5588      2.00000
      7       0.5779      2.00000
      8       0.7334      2.00000
      9       0.8191      2.00000
     10       1.0617      2.00000
     11       1.0829      2.00000
     12       1.1566      2.00000
     13       1.2119      2.00000
     14       1.2790      2.00000
     15       1.5002      2.00000
     16       1.5481      2.00000
     17       1.6158      2.00000
     18       1.6596      2.00000
     19       1.7394      2.00000
     20       1.7901      2.00000
     21       1.9752      2.00000
     22       2.0450      2.00000
     23       2.0733      2.00000
     24       2.1345      2.00000
     25       2.2336      2.00000
     26       2.2737      2.00000
     27       2.2794      2.00000
     28       2.3467      2.00000
     29       2.4134      2.00000
     30       2.4686      2.00000
     31       2.5026      2.00000
     32       2.5519      2.00000
     33       2.6072      2.00000
     34       2.6979      2.00000
     35       2.8111      2.00000
     36       2.8493      2.00000
     37       2.8973      2.00000
     38       2.9736      2.00000
     39       2.9922      2.00000
     40       3.0468      2.00000
     41       3.0924      2.00000
     42       3.1303      2.00000
     43       3.2463      2.00000
     44       3.3573      2.00000
     45       3.3852      2.00000
     46       3.5288      2.00000
     47       3.8113      2.00000
     48       3.8985      2.00000
     49       4.7024      2.00000
     50       4.8876      2.00000
     51       5.2485      2.00000
     52       5.7164      2.00000
     53       6.1585      2.00000
     54       6.3895      2.00000
     55       6.5785      2.00000
     56       6.7180      2.00051
     57       6.7655     -0.01953
     58       8.0329      0.00000
     59       9.3056      0.00000
     60       9.4945      0.00000
     61      10.0489      0.00000
     62      11.1551      0.00000
     63      11.4857      0.00000
     64      11.8110      0.00000
     65      12.0432      0.00000
     66      12.3901      0.00000
     67      13.2074      0.00000
     68      13.3365      0.00000

 k-point     3 :       0.0526    0.0000    0.0000
  band No.  band energies     occupation 
      1      -6.6653      2.00000
      2      -6.1906      2.00000
      3      -6.0368      2.00000
      4      -5.9531      2.00000
      5       0.4793      2.00000
      6       0.5608      2.00000
      7       0.5863      2.00000
      8       0.7128      2.00000
      9       0.8698      2.00000
     10       1.0481      2.00000
     11       1.0777      2.00000
     12       1.1591      2.00000
     13       1.2215      2.00000
     14       1.2805      2.00000
     15       1.5156      2.00000
     16       1.5448      2.00000
     17       1.6094      2.00000
     18       1.6701      2.00000
     19       1.7345      2.00000
     20       1.7924      2.00000
     21       1.9705      2.00000
     22       2.0310      2.00000
     23       2.0557      2.00000
     24       2.1174      2.00000
     25       2.2087      2.00000
     26       2.2614      2.00000
     27       2.2875      2.00000
     28       2.3841      2.00000
     29       2.4295      2.00000
     30       2.4698      2.00000
     31       2.5062      2.00000
     32       2.5442      2.00000
     33       2.6141      2.00000
     34       2.7102      2.00000
     35       2.8010      2.00000
     36       2.8466      2.00000
     37       2.9040      2.00000
     38       2.9705      2.00000
     39       2.9889      2.00000
     40       3.0394      2.00000
     41       3.0913      2.00000
     42       3.1139      2.00000
     43       3.2344      2.00000
     44       3.3461      2.00000
     45       3.4043      2.00000
     46       3.5424      2.00000
     47       3.8309      2.00000
     48       3.9046      2.00000
     49       4.6998      2.00000
     50       4.8493      2.00000
     51       5.1951      2.00000
     52       5.7018      2.00000
     53       6.0914      2.00000
     54       6.3386      2.00000
     55       6.6321      2.00000
     56       6.6702      2.00000
     57       6.7995     -0.00000
     58       8.1504      0.00000
     59       9.3743      0.00000
     60       9.5691      0.00000
     61      10.0490      0.00000
     62      11.1171      0.00000
     63      11.4325      0.00000
     64      11.7664      0.00000
     65      11.9827      0.00000
     66      12.2930      0.00000
     67      13.1995      0.00000
     68      13.4017      0.00000

 k-point     4 :       0.0789    0.0000    0.0000
  band No.  band energies     occupation 
      1      -6.6521      2.00000
      2      -6.1881      2.00000
      3      -6.0337      2.00000
      4      -5.9528      2.00000
      5       0.4773      2.00000
      6       0.5626      2.00000
      7       0.5998      2.00000
      8       0.7081      2.00000
      9       0.9232      2.00000
     10       1.0299      2.00000
     11       1.0703      2.00000
     12       1.1587      2.00000
     13       1.2344      2.00000
     14       1.2897      2.00000
     15       1.5292      2.00000
     16       1.5479      2.00000
     17       1.6032      2.00000
     18       1.6805      2.00000
     19       1.7285      2.00000
     20       1.7962      2.00000
     21       1.9588      2.00000
     22       1.9989      2.00000
     23       2.0522      2.00000
     24       2.0932      2.00000
     25       2.1836      2.00000
     26       2.2448      2.00000
     27       2.2965      2.00000
     28       2.4237      2.00000
     29       2.4404      2.00000
     30       2.4690      2.00000
     31       2.5180      2.00000
     32       2.5474      2.00000
     33       2.6187      2.00000
     34       2.7257      2.00000
     35       2.7848      2.00000
     36       2.8449      2.00000
     37       2.9103      2.00000
     38       2.9659      2.00000
     39       2.9831      2.00000
     40       3.0285      2.00000
     41       3.0799      2.00000
     42       3.0977      2.00000
     43       3.2284      2.00000
     44       3.3289      2.00000
     45       3.4218      2.00000
     46       3.5651      2.00000
     47       3.8593      2.00000
     48       3.9140      2.00000
     49       4.6874      2.00000
     50       4.7936      2.00000
     51       5.1270      2.00000
     52       5.6671      2.00000
     53       5.9961      2.00000
     54       6.2819      2.00000
     55       6.5985      2.00000
     56       6.6700      2.00000
     57       6.8837     -0.00000
     58       8.3206      0.00000
     59       9.4815      0.00000
     60       9.6755      0.00000
     61      10.0489      0.00000
     62      11.0602      0.00000
     63      11.3488      0.00000
     64      11.6912      0.00000
     65      11.8961      0.00000
     66      12.1593      0.00000
     67      13.1796      0.00000
     68      13.4793      0.00000

 k-point     5 :       0.1053    0.0000    0.0000
  band No.  band energies     occupation 
      1      -6.6340      2.00000
      2      -6.1847      2.00000
      3      -6.0295      2.00000
      4      -5.9524      2.00000
      5       0.4741      2.00000
      6       0.5659      2.00000
      7       0.6157      2.00000
      8       0.7204      2.00000
      9       0.9693      2.00000
     10       1.0115      2.00000
     11       1.0629      2.00000
     12       1.1553      2.00000
     13       1.2508      2.00000
     14       1.3089      2.00000
     15       1.5235      2.00000
     16       1.5719      2.00000
     17       1.5988      2.00000
     18       1.6829      2.00000
     19       1.7280      2.00000
     20       1.8013      2.00000
     21       1.9321      2.00000
     22       1.9756      2.00000
     23       2.0505      2.00000
     24       2.0683      2.00000
     25       2.1616      2.00000
     26       2.2248      2.00000
     27       2.3041      2.00000
     28       2.4343      2.00000
     29       2.4637      2.00000
     30       2.4696      2.00000
     31       2.5412      2.00000
     32       2.5602      2.00000
     33       2.6213      2.00000
     34       2.7381      2.00000
     35       2.7669      2.00000
     36       2.8434      2.00000
     37       2.9103      2.00000
     38       2.9634      2.00000
     39       2.9743      2.00000
     40       3.0157      2.00000
     41       3.0487      2.00000
     42       3.0989      2.00000
     43       3.2279      2.00000
     44       3.3086      2.00000
     45       3.4331      2.00000
     46       3.5946      2.00000
     47       3.8909      2.00000
     48       3.9254      2.00000
     49       4.6533      2.00000
     50       4.7302      2.00000
     51       5.0662      2.00000
     52       5.5930      2.00000
     53       5.9199      2.00000
     54       6.2059      2.00000
     55       6.5259      2.00000
     56       6.6751      2.00000
     57       7.0165     -0.00000
     58       8.5230      0.00000
     59       9.6109      0.00000
     60       9.7839      0.00000
     61      10.0570      0.00000
     62      10.9942      0.00000
     63      11.2459      0.00000
     64      11.5866      0.00000
     65      11.7907      0.00000
     66      12.0148      0.00000
     67      13.1378      0.00000
     68      13.4377      0.00000

 k-point     6 :       0.1316    0.0000    0.0000
  band No.  band energies     occupation 
      1      -6.6112      2.00000
      2      -6.1804      2.00000
      3      -6.0245      2.00000
      4      -5.9520      2.00000
      5       0.4703      2.00000
      6       0.5727      2.00000
      7       0.6323      2.00000
      8       0.7473      2.00000
      9       0.9782      2.00000
     10       1.0062      2.00000
     11       1.0649      2.00000
     12       1.1536      2.00000
     13       1.2746      2.00000
     14       1.3343      2.00000
     15       1.5133      2.00000
     16       1.5862      2.00000
     17       1.6083      2.00000
     18       1.6730      2.00000
     19       1.7374      2.00000
     20       1.8079      2.00000
     21       1.8982      2.00000
     22       1.9619      2.00000
     23       2.0330      2.00000
     24       2.0626      2.00000
     25       2.1432      2.00000
     26       2.2020      2.00000
     27       2.3096      2.00000
     28       2.4284      2.00000
     29       2.4719      2.00000
     30       2.4936      2.00000
     31       2.5667      2.00000
     32       2.5790      2.00000
     33       2.6229      2.00000
     34       2.7314      2.00000
     35       2.7623      2.00000
     36       2.8404      2.00000
     37       2.8978      2.00000
     38       2.9556      2.00000
     39       2.9727      2.00000
     40       3.0049      2.00000
     41       3.0182      2.00000
     42       3.1053      2.00000
     43       3.2291      2.00000
     44       3.2878      2.00000
     45       3.4379      2.00000
     46       3.6263      2.00000
     47       3.9167      2.00000
     48       3.9406      2.00000
     49       4.5915      2.00000
     50       4.6672      2.00000
     51       5.0243      2.00000
     52       5.4844      2.00000
     53       5.8839      2.00000
     54       6.1055      2.00000
     55       6.4548      2.00000
     56       6.6661      2.00000
     57       7.1760      0.00000
     58       8.7423      0.00000
     59       9.7296      0.00000
     60       9.8395      0.00000
     61      10.1081      0.00000
     62      10.9313      0.00000
     63      11.1449      0.00000
     64      11.4607      0.00000
     65      11.6696      0.00000
     66      11.8826      0.00000
     67      13.0616      0.00000
     68      13.2312      0.00000

 k-point     7 :       0.1579    0.0000    0.0000
  band No.  band energies     occupation 
      1      -6.5842      2.00000
      2      -6.1753      2.00000
      3      -6.0189      2.00000
      4      -5.9516      2.00000
      5       0.4673      2.00000
      6       0.5829      2.00000
      7       0.6493      2.00000
      8       0.7846      2.00000
      9       0.9583      2.00000
     10       0.9987      2.00000
     11       1.0727      2.00000
     12       1.1639      2.00000
     13       1.3067      2.00000
     14       1.3619      2.00000
     15       1.5042      2.00000
     16       1.5793      2.00000
     17       1.6314      2.00000
     18       1.6616      2.00000
     19       1.7515      2.00000
     20       1.8162      2.00000
     21       1.8706      2.00000
     22       1.9499      2.00000
     23       2.0135      2.00000
     24       2.0663      2.00000
     25       2.1289      2.00000
     26       2.1780      2.00000
     27       2.3122      2.00000
     28       2.4257      2.00000
     29       2.4756      2.00000
     30       2.5153      2.00000
     31       2.5821      2.00000
     32       2.6023      2.00000
     33       2.6270      2.00000
     34       2.7107      2.00000
     35       2.7658      2.00000
     36       2.8348      2.00000
     37       2.8748      2.00000
     38       2.9382      2.00000
     39       2.9679      2.00000
     40       2.9929      2.00000
     41       3.0130      2.00000
     42       3.1155      2.00000
     43       3.2267      2.00000
     44       3.2703      2.00000
     45       3.4371      2.00000
     46       3.6546      2.00000
     47       3.9282      2.00000
     48       3.9608      2.00000
     49       4.5097      2.00000
     50       4.6143      2.00000
     51       4.9832      2.00000
     52       5.3869      2.00000
     53       5.8719      2.00000
     54       5.9881      2.00000
     55       6.3845      2.00000
     56       6.6490      2.00000
     57       7.3495      0.00000
     58       8.9677      0.00000
     59       9.7611      0.00000
     60       9.8420      0.00000
     61      10.2072      0.00000
     62      10.8783      0.00000
     63      11.0761      0.00000
     64      11.3314      0.00000
     65      11.5471      0.00000
     66      11.7794      0.00000
     67      12.9465      0.00000
     68      13.0507      0.00000

 k-point     8 :       0.1842    0.0000    0.0000
  band No.  band energies     occupation 
      1      -6.5534      2.00000
      2      -6.1695      2.00000
      3      -6.0129      2.00000
      4      -5.9512      2.00000
      5       0.4664      2.00000
      6       0.5949      2.00000
      7       0.6666      2.00000
      8       0.8280      2.00000
      9       0.9346      2.00000
     10       0.9838      2.00000
     11       1.0692      2.00000
     12       1.1860      2.00000
     13       1.3407      2.00000
     14       1.3899      2.00000
     15       1.5000      2.00000
     16       1.5648      2.00000
     17       1.6303      2.00000
     18       1.6731      2.00000
     19       1.7668      2.00000
     20       1.8261      2.00000
     21       1.8562      2.00000
     22       1.9386      2.00000
     23       2.0041      2.00000
     24       2.0693      2.00000
     25       2.1195      2.00000
     26       2.1557      2.00000
     27       2.3123      2.00000
     28       2.4280      2.00000
     29       2.4797      2.00000
     30       2.5298      2.00000
     31       2.5867      2.00000
     32       2.6155      2.00000
     33       2.6382      2.00000
     34       2.6932      2.00000
     35       2.7645      2.00000
     36       2.8229      2.00000
     37       2.8492      2.00000
     38       2.9206      2.00000
     39       2.9482      2.00000
     40       2.9772      2.00000
     41       3.0368      2.00000
     42       3.1297      2.00000
     43       3.2144      2.00000
     44       3.2612      2.00000
     45       3.4322      2.00000
     46       3.6722      2.00000
     47       3.9341      2.00000
     48       3.9728      2.00000
     49       4.4229      2.00000
     50       4.5819      2.00000
     51       4.9069      2.00000
     52       5.3482      2.00000
     53       5.8479      2.00000
     54       5.8849      2.00000
     55       6.3109      2.00000
     56       6.6264      2.00000
     57       7.5301      0.00000
     58       9.1889      0.00000
     59       9.6780      0.00000
     60       9.8122      0.00000
     61      10.2835      0.00000
     62      10.8340      0.00000
     63      11.0585      0.00000
     64      11.2191      0.00000
     65      11.4612      0.00000
     66      11.7261      0.00000
     67      12.8094      0.00000
     68      12.8878      0.00000

 k-point     9 :       0.2105    0.0000    0.0000
  band No.  band energies     occupation 
      1      -6.5194      2.00000
      2      -6.1630      2.00000
      3      -6.0071      2.00000
      4      -5.9510      2.00000
      5       0.4683      2.00000
      6       0.6057      2.00000
      7       0.6840      2.00000
      8       0.8721      2.00000
      9       0.9099      2.00000
     10       0.9707      2.00000
     11       1.0604      2.00000
     12       1.2099      2.00000
     13       1.3596      2.00000
     14       1.4232      2.00000
     15       1.4995      2.00000
     16       1.5469      2.00000
     17       1.6215      2.00000
     18       1.6925      2.00000
     19       1.7823      2.00000
     20       1.8353      2.00000
     21       1.8609      2.00000
     22       1.9307      2.00000
     23       2.0057      2.00000
     24       2.0701      2.00000
     25       2.1127      2.00000
     26       2.1405      2.00000
     27       2.3111      2.00000
     28       2.4331      2.00000
     29       2.4838      2.00000
     30       2.5368      2.00000
     31       2.5851      2.00000
     32       2.6145      2.00000
     33       2.6442      2.00000
     34       2.6898      2.00000
     35       2.7586      2.00000
     36       2.7991      2.00000
     37       2.8310      2.00000
     38       2.9052      2.00000
     39       2.9255      2.00000
     40       2.9652      2.00000
     41       3.0627      2.00000
     42       3.1478      2.00000
     43       3.1957      2.00000
     44       3.2561      2.00000
     45       3.4260      2.00000
     46       3.6727      2.00000
     47       3.9398      2.00000
     48       3.9690      2.00000
     49       4.3500      2.00000
     50       4.5719      2.00000
     51       4.7932      2.00000
     52       5.3724      2.00000
     53       5.7329      2.00000
     54       5.8766      2.00000
     55       6.2308      2.00000
     56       6.5994      2.00000
     57       7.7136      0.00000
     58       9.3845      0.00000
     59       9.5526      0.00000
     60       9.7147      0.00000
     61      10.2656      0.00000
     62      10.7906      0.00000
     63      11.0442      0.00000
     64      11.1785      0.00000
     65      11.4310      0.00000
     66      11.7711      0.00000
     67      12.6704      0.00000
     68      12.7418      0.00000

 k-point    10 :       0.2368    0.0000    0.0000
  band No.  band energies     occupation 
      1      -6.4828      2.00000
      2      -6.1560      2.00000
      3      -6.0016      2.00000
      4      -5.9508      2.00000
      5       0.4730      2.00000
      6       0.6115      2.00000
      7       0.7009      2.00000
      8       0.8843      2.00000
      9       0.9069      2.00000
     10       0.9685      2.00000
     11       1.0562      2.00000
     12       1.2312      2.00000
     13       1.3587      2.00000
     14       1.4545      2.00000
     15       1.4874      2.00000
     16       1.5457      2.00000
     17       1.6195      2.00000
     18       1.7087      2.00000
     19       1.7966      2.00000
     20       1.8456      2.00000
     21       1.8817      2.00000
     22       1.9312      2.00000
     23       2.0147      2.00000
     24       2.0702      2.00000
     25       2.1051      2.00000
     26       2.1378      2.00000
     27       2.3098      2.00000
     28       2.4379      2.00000
     29       2.4859      2.00000
     30       2.5363      2.00000
     31       2.5821      2.00000
     32       2.6036      2.00000
     33       2.6402      2.00000
     34       2.6955      2.00000
     35       2.7486      2.00000
     36       2.7727      2.00000
     37       2.8179      2.00000
     38       2.8899      2.00000
     39       2.9065      2.00000
     40       2.9546      2.00000
     41       3.0816      2.00000
     42       3.1529      2.00000
     43       3.1944      2.00000
     44       3.2454      2.00000
     45       3.4226      2.00000
     46       3.6569      2.00000
     47       3.9095      2.00000
     48       3.9842      2.00000
     49       4.3053      2.00000
     50       4.5792      2.00000
     51       4.6682      2.00000
     52       5.4320      2.00000
     53       5.6195      2.00000
     54       5.8747      2.00000
     55       6.1433      2.00000
     56       6.5689      2.00000
     57       7.8969      0.00000
     58       9.3690      0.00000
     59       9.4745      0.00000
     60       9.6777      0.00000
     61      10.1518      0.00000
     62      10.7229      0.00000
     63      10.9860      0.00000
     64      11.2422      0.00000
     65      11.4514      0.00000
     66      11.9358      0.00000
     67      12.5429      0.00000
     68      12.6160      0.00000

 k-point    11 :       0.2632    0.0000    0.0000
  band No.  band energies     occupation 
      1      -6.4444      2.00000
      2      -6.1485      2.00000
      3      -5.9971      2.00000
      4      -5.9508      2.00000
      5       0.4797      2.00000
      6       0.6090      2.00000
      7       0.7168      2.00000
      8       0.8606      2.00000
      9       0.9183      2.00000
     10       0.9814      2.00000
     11       1.0686      2.00000
     12       1.2498      2.00000
     13       1.3464      2.00000
     14       1.4371      2.00000
     15       1.5025      2.00000
     16       1.5574      2.00000
     17       1.6259      2.00000
     18       1.7235      2.00000
     19       1.8090      2.00000
     20       1.8613      2.00000
     21       1.9081      2.00000
     22       1.9440      2.00000
     23       2.0257      2.00000
     24       2.0696      2.00000
     25       2.1060      2.00000
     26       2.1430      2.00000
     27       2.3091      2.00000
     28       2.4393      2.00000
     29       2.4823      2.00000
     30       2.5309      2.00000
     31       2.5766      2.00000
     32       2.5941      2.00000
     33       2.6297      2.00000
     34       2.6971      2.00000
     35       2.7289      2.00000
     36       2.7588      2.00000
     37       2.8069      2.00000
     38       2.8736      2.00000
     39       2.8941      2.00000
     40       2.9438      2.00000
     41       3.0898      2.00000
     42       3.1317      2.00000
     43       3.2208      2.00000
     44       3.2258      2.00000
     45       3.4262      2.00000
     46       3.6347      2.00000
     47       3.8442      2.00000
     48       4.0234      2.00000
     49       4.2882      2.00000
     50       4.5405      2.00000
     51       4.6039      2.00000
     52       5.4783      2.00000
     53       5.5508      2.00000
     54       5.8680      2.00000
     55       6.0506      2.00000
     56       6.5357      2.00000
     57       8.0773      0.00000
     58       9.1822      0.00000
     59       9.3347      0.00000
     60       9.7556      0.00000
     61      10.0346      0.00000
     62      10.6196      0.00000
     63      10.9569      0.00000
     64      11.2774      0.00000
     65      11.5650      0.00000
     66      12.1454      0.00000
     67      12.4463      0.00000
     68      12.5324      0.00000

 k-point    12 :       0.2895    0.0000    0.0000
  band No.  band energies     occupation 
      1      -6.4049      2.00000
      2      -6.1408      2.00000
      3      -5.9939      2.00000
      4      -5.9508      2.00000
      5       0.4876      2.00000
      6       0.5970      2.00000
      7       0.7298      2.00000
      8       0.8372      2.00000
      9       0.9213      2.00000
     10       0.9927      2.00000
     11       1.1027      2.00000
     12       1.2666      2.00000
     13       1.3249      2.00000
     14       1.4052      2.00000
     15       1.5252      2.00000
     16       1.5667      2.00000
     17       1.6407      2.00000
     18       1.7382      2.00000
     19       1.8212      2.00000
     20       1.8819      2.00000
     21       1.9333      2.00000
     22       1.9655      2.00000
     23       2.0379      2.00000
     24       2.0690      2.00000
     25       2.1215      2.00000
     26       2.1518      2.00000
     27       2.3090      2.00000
     28       2.4350      2.00000
     29       2.4717      2.00000
     30       2.5206      2.00000
     31       2.5668      2.00000
     32       2.5922      2.00000
     33       2.6155      2.00000
     34       2.6918      2.00000
     35       2.7083      2.00000
     36       2.7497      2.00000
     37       2.7991      2.00000
     38       2.8603      2.00000
     39       2.8849      2.00000
     40       2.9319      2.00000
     41       3.0866      2.00000
     42       3.1077      2.00000
     43       3.1873      2.00000
     44       3.2564      2.00000
     45       3.4368      2.00000
     46       3.6182      2.00000
     47       3.7704      2.00000
     48       4.0736      2.00000
     49       4.2882      2.00000
     50       4.4325      2.00000
     51       4.6226      2.00000
     52       5.4139      2.00000
     53       5.6178      2.00000
     54       5.8480      2.00000
     55       5.9626      2.00000
     56       6.5006      2.00000
     57       8.2520      0.00000
     58       8.9689      0.00000
     59       9.1814      0.00000
     60       9.6482      0.00000
     61      10.0745      0.00000
     62      10.5058      0.00000
     63      10.9490      0.00000
     64      11.3026      0.00000
     65      11.7279      0.00000
     66      12.1994      0.00000
     67      12.3823      0.00000
     68      12.6538      0.00000

 k-point    13 :       0.3158    0.0000    0.0000
  band No.  band energies     occupation 
      1      -6.3652      2.00000
      2      -6.1328      2.00000
      3      -5.9924      2.00000
      4      -5.9510      2.00000
      5       0.4955      2.00000
      6       0.5780      2.00000
      7       0.7370      2.00000
      8       0.8138      2.00000
      9       0.9277      2.00000
     10       1.0026      2.00000
     11       1.1465      2.00000
     12       1.2832      2.00000
     13       1.2930      2.00000
     14       1.3850      2.00000
     15       1.5397      2.00000
     16       1.5715      2.00000
     17       1.6621      2.00000
     18       1.7510      2.00000
     19       1.8348      2.00000
     20       1.9059      2.00000
     21       1.9585      2.00000
     22       1.9813      2.00000
     23       2.0523      2.00000
     24       2.0795      2.00000
     25       2.1413      2.00000
     26       2.1650      2.00000
     27       2.3088      2.00000
     28       2.4247      2.00000
     29       2.4585      2.00000
     30       2.5048      2.00000
     31       2.5458      2.00000
     32       2.5935      2.00000
     33       2.6094      2.00000
     34       2.6798      2.00000
     35       2.6959      2.00000
     36       2.7373      2.00000
     37       2.7956      2.00000
     38       2.8510      2.00000
     39       2.8757      2.00000
     40       2.9187      2.00000
     41       3.0721      2.00000
     42       3.0878      2.00000
     43       3.1446      2.00000
     44       3.2799      2.00000
     45       3.4534      2.00000
     46       3.6109      2.00000
     47       3.7083      2.00000
     48       4.1294      2.00000
     49       4.2945      2.00000
     50       4.3411      2.00000
     51       4.6366      2.00000
     52       5.3493      2.00000
     53       5.6970      2.00000
     54       5.7999      2.00000
     55       5.9068      2.00000
     56       6.4648      2.00000
     57       8.4164      0.00000
     58       8.7502      0.00000
     59       9.0378      0.00000
     60       9.4502      0.00000
     61      10.1592      0.00000
     62      10.4021      0.00000
     63      10.9572      0.00000
     64      11.3487      0.00000
     65      11.8923      0.00000
     66      12.1238      0.00000
     67      12.3226      0.00000
     68      12.9636      0.00000

 k-point    14 :       0.3421    0.0000    0.0000
  band No.  band energies     occupation 
      1      -6.3264      2.00000
      2      -6.1247      2.00000
      3      -5.9931      2.00000
      4      -5.9512      2.00000
      5       0.5017      2.00000
      6       0.5561      2.00000
      7       0.7353      2.00000
      8       0.7916      2.00000
      9       0.9398      2.00000
     10       1.0159      2.00000
     11       1.1871      2.00000
     12       1.2578      2.00000
     13       1.3011      2.00000
     14       1.3783      2.00000
     15       1.5469      2.00000
     16       1.5734      2.00000
     17       1.6870      2.00000
     18       1.7604      2.00000
     19       1.8504      2.00000
     20       1.9311      2.00000
     21       1.9786      2.00000
     22       1.9932      2.00000
     23       2.0612      2.00000
     24       2.1088      2.00000
     25       2.1580      2.00000
     26       2.1835      2.00000
     27       2.3062      2.00000
     28       2.4104      2.00000
     29       2.4460      2.00000
     30       2.4872      2.00000
     31       2.5119      2.00000
     32       2.5907      2.00000
     33       2.6163      2.00000
     34       2.6657      2.00000
     35       2.6881      2.00000
     36       2.7237      2.00000
     37       2.7961      2.00000
     38       2.8426      2.00000
     39       2.8645      2.00000
     40       2.9053      2.00000
     41       3.0527      2.00000
     42       3.0685      2.00000
     43       3.1027      2.00000
     44       3.2871      2.00000
     45       3.4778      2.00000
     46       3.5924      2.00000
     47       3.6882      2.00000
     48       4.1802      2.00000
     49       4.2584      2.00000
     50       4.3205      2.00000
     51       4.6372      2.00000
     52       5.3038      2.00000
     53       5.6773      2.00000
     54       5.8082      2.00000
     55       5.8921      2.00000
     56       6.4296      2.00000
     57       8.5213      0.00000
     58       8.5802      0.00000
     59       8.9099      0.00000
     60       9.2513      0.00000
     61      10.1965      0.00000
     62      10.3218      0.00000
     63      10.9880      0.00000
     64      11.4151      0.00000
     65      12.0217      0.00000
     66      12.0455      0.00000
     67      12.2936      0.00000
     68      13.3153      0.00000

 k-point    15 :       0.3684    0.0000    0.0000
  band No.  band energies     occupation 
      1      -6.2896      2.00000
      2      -6.1164      2.00000
      3      -5.9963      2.00000
      4      -5.9514      2.00000
      5       0.5023      2.00000
      6       0.5383      2.00000
      7       0.7238      2.00000
      8       0.7725      2.00000
      9       0.9560      2.00000
     10       1.0333      2.00000
     11       1.1970      2.00000
     12       1.2485      2.00000
     13       1.3215      2.00000
     14       1.3818      2.00000
     15       1.5495      2.00000
     16       1.5731      2.00000
     17       1.7104      2.00000
     18       1.7679      2.00000
     19       1.8670      2.00000
     20       1.9542      2.00000
     21       1.9845      2.00000
     22       2.0157      2.00000
     23       2.0681      2.00000
     24       2.1412      2.00000
     25       2.1765      2.00000
     26       2.2015      2.00000
     27       2.2991      2.00000
     28       2.3948      2.00000
     29       2.4343      2.00000
     30       2.4690      2.00000
     31       2.4776      2.00000
     32       2.5843      2.00000
     33       2.6234      2.00000
     34       2.6526      2.00000
     35       2.6811      2.00000
     36       2.7136      2.00000
     37       2.7989      2.00000
     38       2.8315      2.00000
     39       2.8499      2.00000
     40       2.8955      2.00000
     41       3.0264      2.00000
     42       3.0529      2.00000
     43       3.0720      2.00000
     44       3.2785      2.00000
     45       3.5022      2.00000
     46       3.5650      2.00000
     47       3.7146      2.00000
     48       4.1663      2.00000
     49       4.2624      2.00000
     50       4.3422      2.00000
     51       4.6199      2.00000
     52       5.2760      2.00000
     53       5.5913      2.00000
     54       5.8277      2.00000
     55       5.9329      2.00000
     56       6.3964      2.00000
     57       8.3422      0.00000
     58       8.6412      0.00000
     59       8.8400      0.00000
     60       9.0812      0.00000
     61      10.1715      0.00000
     62      10.2735      0.00000
     63      11.0395      0.00000
     64      11.4921      0.00000
     65      11.9518      0.00000
     66      12.1125      0.00000
     67      12.3279      0.00000
     68      13.7007      0.00000

 k-point    16 :       0.3947    0.0000    0.0000
  band No.  band energies     occupation 
      1      -6.2561      2.00000
      2      -6.1078      2.00000
      3      -6.0020      2.00000
      4      -5.9517      2.00000
      5       0.4917      2.00000
      6       0.5325      2.00000
      7       0.7061      2.00000
      8       0.7569      2.00000
      9       0.9730      2.00000
     10       1.0532      2.00000
     11       1.1704      2.00000
     12       1.2729      2.00000
     13       1.3442      2.00000
     14       1.3933      2.00000
     15       1.5495      2.00000
     16       1.5704      2.00000
     17       1.7237      2.00000
     18       1.7805      2.00000
     19       1.8840      2.00000
     20       1.9680      2.00000
     21       1.9937      2.00000
     22       2.0374      2.00000
     23       2.0737      2.00000
     24       2.1668      2.00000
     25       2.2001      2.00000
     26       2.2143      2.00000
     27       2.2883      2.00000
     28       2.3784      2.00000
     29       2.4210      2.00000
     30       2.4361      2.00000
     31       2.4703      2.00000
     32       2.5739      2.00000
     33       2.6214      2.00000
     34       2.6431      2.00000
     35       2.6746      2.00000
     36       2.7095      2.00000
     37       2.7987      2.00000
     38       2.8187      2.00000
     39       2.8322      2.00000
     40       2.8938      2.00000
     41       2.9984      2.00000
     42       3.0335      2.00000
     43       3.0634      2.00000
     44       3.2603      2.00000
     45       3.4908      2.00000
     46       3.5793      2.00000
     47       3.7631      2.00000
     48       4.1181      2.00000
     49       4.2993      2.00000
     50       4.3755      2.00000
     51       4.5836      2.00000
     52       5.2610      2.00000
     53       5.5135      2.00000
     54       5.8158      2.00000
     55       6.0021      2.00000
     56       6.3668      2.00000
     57       8.1779      0.00000
     58       8.5613      0.00000
     59       8.8668      0.00000
     60       8.9910      0.00000
     61      10.1196      0.00000
     62      10.2351      0.00000
     63      11.0990      0.00000
     64      11.5678      0.00000
     65      11.8813      0.00000
     66      12.1351      0.00000
     67      12.4175      0.00000
     68      14.0479      0.00000

 k-point    17 :       0.4211    0.0000    0.0000
  band No.  band energies     occupation 
      1      -6.2274      2.00000
      2      -6.0985      2.00000
      3      -6.0102      2.00000
      4      -5.9520      2.00000
      5       0.4761      2.00000
      6       0.5339      2.00000
      7       0.6876      2.00000
      8       0.7437      2.00000
      9       0.9879      2.00000
     10       1.0728      2.00000
     11       1.1442      2.00000
     12       1.2969      2.00000
     13       1.3675      2.00000
     14       1.4098      2.00000
     15       1.5473      2.00000
     16       1.5656      2.00000
     17       1.7222      2.00000
     18       1.8028      2.00000
     19       1.9013      2.00000
     20       1.9717      2.00000
     21       2.0047      2.00000
     22       2.0567      2.00000
     23       2.0790      2.00000
     24       2.1835      2.00000
     25       2.2174      2.00000
     26       2.2234      2.00000
     27       2.2806      2.00000
     28       2.3613      2.00000
     29       2.4014      2.00000
     30       2.4170      2.00000
     31       2.4737      2.00000
     32       2.5624      2.00000
     33       2.6059      2.00000
     34       2.6395      2.00000
     35       2.6709      2.00000
     36       2.7082      2.00000
     37       2.7848      2.00000
     38       2.8062      2.00000
     39       2.8228      2.00000
     40       2.8973      2.00000
     41       2.9808      2.00000
     42       3.0122      2.00000
     43       3.0680      2.00000
     44       3.2389      2.00000
     45       3.4624      2.00000
     46       3.6135      2.00000
     47       3.8261      2.00000
     48       4.0787      2.00000
     49       4.3240      2.00000
     50       4.4134      2.00000
     51       4.5316      2.00000
     52       5.2551      2.00000
     53       5.4536      2.00000
     54       5.7999      2.00000
     55       6.0639      2.00000
     56       6.3426      2.00000
     57       8.0471      0.00000
     58       8.4388      0.00000
     59       8.8080      0.00000
     60       9.0584      0.00000
     61      10.0681      0.00000
     62      10.1947      0.00000
     63      11.1538      0.00000
     64      11.6315      0.00000
     65      11.8241      0.00000
     66      12.1485      0.00000
     67      12.5106      0.00000
     68      14.0160      0.00000

 k-point    18 :       0.4474    0.0000    0.0000
  band No.  band energies     occupation 
      1      -6.2055      2.00000
      2      -6.0882      2.00000
      3      -6.0204      2.00000
      4      -5.9523      2.00000
      5       0.4629      2.00000
      6       0.5364      2.00000
      7       0.6721      2.00000
      8       0.7331      2.00000
      9       0.9991      2.00000
     10       1.0882      2.00000
     11       1.1252      2.00000
     12       1.3166      2.00000
     13       1.3893      2.00000
     14       1.4265      2.00000
     15       1.5411      2.00000
     16       1.5612      2.00000
     17       1.7138      2.00000
     18       1.8283      2.00000
     19       1.9182      2.00000
     20       1.9712      2.00000
     21       2.0058      2.00000
     22       2.0757      2.00000
     23       2.0864      2.00000
     24       2.1880      2.00000
     25       2.2136      2.00000
     26       2.2337      2.00000
     27       2.2846      2.00000
     28       2.3465      2.00000
     29       2.3848      2.00000
     30       2.4123      2.00000
     31       2.4790      2.00000
     32       2.5539      2.00000
     33       2.5864      2.00000
     34       2.6379      2.00000
     35       2.6694      2.00000
     36       2.7069      2.00000
     37       2.7650      2.00000
     38       2.7901      2.00000
     39       2.8249      2.00000
     40       2.9000      2.00000
     41       2.9749      2.00000
     42       2.9979      2.00000
     43       3.0754      2.00000
     44       3.2189      2.00000
     45       3.4376      2.00000
     46       3.6421      2.00000
     47       3.8982      2.00000
     48       4.0504      2.00000
     49       4.3383      2.00000
     50       4.4324      2.00000
     51       4.4819      2.00000
     52       5.2591      2.00000
     53       5.4097      2.00000
     54       5.7863      2.00000
     55       6.1097      2.00000
     56       6.3256      2.00000
     57       7.9544      0.00000
     58       8.3292      0.00000
     59       8.7481      0.00000
     60       9.1462      0.00000
     61      10.0232      0.00000
     62      10.1594      0.00000
     63      11.1964      0.00000
     64      11.6768      0.00000
     65      11.7818      0.00000
     66      12.1654      0.00000
     67      12.5849      0.00000
     68      13.9788      0.00000

 k-point    19 :       0.4737    0.0000    0.0000
  band No.  band energies     occupation 
      1      -6.1917      2.00000
      2      -6.0781      2.00000
      3      -6.0308      2.00000
      4      -5.9524      2.00000
      5       0.4545      2.00000
      6       0.5382      2.00000
      7       0.6621      2.00000
      8       0.7260      2.00000
      9       1.0063      2.00000
     10       1.0950      2.00000
     11       1.1168      2.00000
     12       1.3306      2.00000
     13       1.4064      2.00000
     14       1.4386      2.00000
     15       1.5320      2.00000
     16       1.5591      2.00000
     17       1.7060      2.00000
     18       1.8496      2.00000
     19       1.9330      2.00000
     20       1.9669      2.00000
     21       1.9997      2.00000
     22       2.0878      2.00000
     23       2.0988      2.00000
     24       2.1826      2.00000
     25       2.2069      2.00000
     26       2.2321      2.00000
     27       2.2973      2.00000
     28       2.3372      2.00000
     29       2.3759      2.00000
     30       2.4136      2.00000
     31       2.4842      2.00000
     32       2.5427      2.00000
     33       2.5769      2.00000
     34       2.6360      2.00000
     35       2.6691      2.00000
     36       2.7052      2.00000
     37       2.7488      2.00000
     38       2.7787      2.00000
     39       2.8273      2.00000
     40       2.9008      2.00000
     41       2.9701      2.00000
     42       2.9964      2.00000
     43       3.0810      2.00000
     44       3.2046      2.00000
     45       3.4209      2.00000
     46       3.6598      2.00000
     47       3.9657      2.00000
     48       4.0320      2.00000
     49       4.3411      2.00000
     50       4.3974      2.00000
     51       4.4818      2.00000
     52       5.2721      2.00000
     53       5.3772      2.00000
     54       5.7774      2.00000
     55       6.1365      2.00000
     56       6.3164      2.00000
     57       7.9004      0.00000
     58       8.2542      0.00000
     59       8.7123      0.00000
     60       9.2089      0.00000
     61       9.9903      0.00000
     62      10.1363      0.00000
     63      11.2230      0.00000
     64      11.7034      0.00000
     65      11.7552      0.00000
     66      12.1806      0.00000
     67      12.6323      0.00000
     68      13.9507      0.00000

 k-point    20 :       0.5000    0.0000    0.0000
  band No.  band energies     occupation 
      1      -6.1871      2.00000
      2      -6.0728      2.00000
      3      -6.0362      2.00000
      4      -5.9525      2.00000
      5       0.4516      2.00000
      6       0.5389      2.00000
      7       0.6587      2.00000
      8       0.7235      2.00000
      9       1.0087      2.00000
     10       1.0951      2.00000
     11       1.1161      2.00000
     12       1.3358      2.00000
     13       1.4133      2.00000
     14       1.4431      2.00000
     15       1.5273      2.00000
     16       1.5585      2.00000
     17       1.7029      2.00000
     18       1.8583      2.00000
     19       1.9406      2.00000
     20       1.9624      2.00000
     21       1.9963      2.00000
     22       2.0910      2.00000
     23       2.1066      2.00000
     24       2.1783      2.00000
     25       2.2043      2.00000
     26       2.2292      2.00000
     27       2.3040      2.00000
     28       2.3342      2.00000
     29       2.3729      2.00000
     30       2.4145      2.00000
     31       2.4885      2.00000
     32       2.5337      2.00000
     33       2.5768      2.00000
     34       2.6348      2.00000
     35       2.6693      2.00000
     36       2.7043      2.00000
     37       2.7426      2.00000
     38       2.7747      2.00000
     39       2.8283      2.00000
     40       2.9011      2.00000
     41       2.9671      2.00000
     42       2.9985      2.00000
     43       3.0829      2.00000
     44       3.1994      2.00000
     45       3.4150      2.00000
     46       3.6657      2.00000
     47       4.0007      2.00000
     48       4.0210      2.00000
     49       4.3344      2.00000
     50       4.3807      2.00000
     51       4.4869      2.00000
     52       5.2814      2.00000
     53       5.3624      2.00000
     54       5.7744      2.00000
     55       6.1450      2.00000
     56       6.3138      2.00000
     57       7.8829      0.00000
     58       8.2274      0.00000
     59       8.7005      0.00000
     60       9.2316      0.00000
     61       9.9777      0.00000
     62      10.1284      0.00000
     63      11.2319      0.00000
     64      11.7126      0.00000
     65      11.7456      0.00000
     66      12.1867      0.00000
     67      12.6486      0.00000
     68      13.9429      0.00000

 k-point    21 :       0.0000    0.5000    0.0000
  band No.  band energies     occupation 
      1      -6.4424      2.00000
      2      -6.3267      2.00000
      3      -6.0947      2.00000
      4      -6.0150      2.00000
      5       0.4077      2.00000
      6       0.4240      2.00000
      7       0.7224      2.00000
      8       0.7456      2.00000
      9       0.9311      2.00000
     10       0.9819      2.00000
     11       1.0167      2.00000
     12       1.0959      2.00000
     13       1.2056      2.00000
     14       1.2817      2.00000
     15       1.3900      2.00000
     16       1.4078      2.00000
     17       1.6058      2.00000
     18       1.6484      2.00000
     19       1.6620      2.00000
     20       1.7699      2.00000
     21       1.9139      2.00000
     22       1.9892      2.00000
     23       2.0914      2.00000
     24       2.1224      2.00000
     25       2.2598      2.00000
     26       2.3394      2.00000
     27       2.4058      2.00000
     28       2.4364      2.00000
     29       2.4501      2.00000
     30       2.5417      2.00000
     31       2.5597      2.00000
     32       2.6056      2.00000
     33       2.6352      2.00000
     34       2.7119      2.00000
     35       2.7737      2.00000
     36       2.8184      2.00000
     37       2.8850      2.00000
     38       2.9269      2.00000
     39       2.9552      2.00000
     40       3.0221      2.00000
     41       3.0687      2.00000
     42       3.1880      2.00000
     43       3.2137      2.00000
     44       3.2237      2.00000
     45       3.2830      2.00000
     46       3.3250      2.00000
     47       4.0737      2.00000
     48       4.1953      2.00000
     49       5.3170      2.00000
     50       5.3816      2.00000
     51       5.6468      2.00000
     52       5.7344      2.00000
     53       5.8559      2.00000
     54       6.1454      2.00000
     55       6.5040      2.00000
     56       6.6015      2.00000
     57       7.7794      0.00000
     58       7.9483      0.00000
     59       8.2296      0.00000
     60       8.2529      0.00000
     61      11.1806      0.00000
     62      11.2618      0.00000
     63      11.3315      0.00000
     64      11.5743      0.00000
     65      11.9500      0.00000
     66      12.1780      0.00000
     67      12.5961      0.00000
     68      12.7901      0.00000

 k-point    22 :       0.0000    0.4737    0.0000
  band No.  band energies     occupation 
      1      -6.4472      2.00000
      2      -6.3219      2.00000
      3      -6.0953      2.00000
      4      -6.0142      2.00000
      5       0.4086      2.00000
      6       0.4249      2.00000
      7       0.7024      2.00000
      8       0.7667      2.00000
      9       0.9265      2.00000
     10       0.9795      2.00000
     11       1.0186      2.00000
     12       1.0969      2.00000
     13       1.2079      2.00000
     14       1.2838      2.00000
     15       1.3889      2.00000
     16       1.4085      2.00000
     17       1.6041      2.00000
     18       1.6459      2.00000
     19       1.6664      2.00000
     20       1.7721      2.00000
     21       1.9150      2.00000
     22       1.9891      2.00000
     23       2.0892      2.00000
     24       2.1239      2.00000
     25       2.2579      2.00000
     26       2.3380      2.00000
     27       2.4068      2.00000
     28       2.4302      2.00000
     29       2.4558      2.00000
     30       2.5400      2.00000
     31       2.5609      2.00000
     32       2.5988      2.00000
     33       2.6413      2.00000
     34       2.7129      2.00000
     35       2.7734      2.00000
     36       2.8163      2.00000
     37       2.8746      2.00000
     38       2.9337      2.00000
     39       2.9580      2.00000
     40       3.0220      2.00000
     41       3.0706      2.00000
     42       3.1855      2.00000
     43       3.2064      2.00000
     44       3.2327      2.00000
     45       3.2833      2.00000
     46       3.3286      2.00000
     47       4.0459      2.00000
     48       4.2234      2.00000
     49       5.2897      2.00000
     50       5.3957      2.00000
     51       5.6445      2.00000
     52       5.7277      2.00000
     53       5.8629      2.00000
     54       6.1479      2.00000
     55       6.5058      2.00000
     56       6.6017      2.00000
     57       7.7668      0.00000
     58       7.9607      0.00000
     59       8.1953      0.00000
     60       8.2918      0.00000
     61      11.1806      0.00000
     62      11.2586      0.00000
     63      11.3403      0.00000
     64      11.5801      0.00000
     65      11.9500      0.00000
     66      12.1770      0.00000
     67      12.5988      0.00000
     68      12.7836      0.00000

 k-point    23 :       0.0000    0.4474    0.0000
  band No.  band energies     occupation 
      1      -6.4597      2.00000
      2      -6.3095      2.00000
      3      -6.0970      2.00000
      4      -6.0121      2.00000
      5       0.4114      2.00000
      6       0.4277      2.00000
      7       0.6755      2.00000
      8       0.7968      2.00000
      9       0.9149      2.00000
     10       0.9713      2.00000
     11       1.0244      2.00000
     12       1.0992      2.00000
     13       1.2147      2.00000
     14       1.2898      2.00000
     15       1.3862      2.00000
     16       1.4103      2.00000
     17       1.5994      2.00000
     18       1.6416      2.00000
     19       1.6764      2.00000
     20       1.7784      2.00000
     21       1.9181      2.00000
     22       1.9887      2.00000
     23       2.0839      2.00000
     24       2.1264      2.00000
     25       2.2532      2.00000
     26       2.3341      2.00000
     27       2.4094      2.00000
     28       2.4204      2.00000
     29       2.4639      2.00000
     30       2.5353      2.00000
     31       2.5611      2.00000
     32       2.5902      2.00000
     33       2.6513      2.00000
     34       2.7147      2.00000
     35       2.7733      2.00000
     36       2.8104      2.00000
     37       2.8557      2.00000
     38       2.9421      2.00000
     39       2.9665      2.00000
     40       3.0221      2.00000
     41       3.0760      2.00000
     42       3.1764      2.00000
     43       3.2005      2.00000
     44       3.2451      2.00000
     45       3.2852      2.00000
     46       3.3384      2.00000
     47       3.9926      2.00000
     48       4.2776      2.00000
     49       5.2375      2.00000
     50       5.4081      2.00000
     51       5.6346      2.00000
     52       5.7161      2.00000
     53       5.8793      2.00000
     54       6.1551      2.00000
     55       6.5110      2.00000
     56       6.6022      2.00000
     57       7.7375      0.00000
     58       7.9879      0.00000
     59       8.1572      0.00000
     60       8.3458      0.00000
     61      11.1793      0.00000
     62      11.2541      0.00000
     63      11.3609      0.00000
     64      11.5985      0.00000
     65      11.9503      0.00000
     66      12.1743      0.00000
     67      12.6067      0.00000
     68      12.7806      0.00000

 k-point    24 :       0.0000    0.4211    0.0000
  band No.  band energies     occupation 
      1      -6.4765      2.00000
      2      -6.2930      2.00000
      3      -6.0994      2.00000
      4      -6.0089      2.00000
      5       0.4161      2.00000
      6       0.4322      2.00000
      7       0.6500      2.00000
      8       0.8272      2.00000
      9       0.8995      2.00000
     10       0.9581      2.00000
     11       1.0330      2.00000
     12       1.1018      2.00000
     13       1.2251      2.00000
     14       1.2980      2.00000
     15       1.3837      2.00000
     16       1.4125      2.00000
     17       1.5924      2.00000
     18       1.6376      2.00000
     19       1.6902      2.00000
     20       1.7883      2.00000
     21       1.9231      2.00000
     22       1.9878      2.00000
     23       2.0775      2.00000
     24       2.1266      2.00000
     25       2.2482      2.00000
     26       2.3284      2.00000
     27       2.4074      2.00000
     28       2.4160      2.00000
     29       2.4696      2.00000
     30       2.5269      2.00000
     31       2.5544      2.00000
     32       2.5922      2.00000
     33       2.6592      2.00000
     34       2.7142      2.00000
     35       2.7754      2.00000
     36       2.8010      2.00000
     37       2.8393      2.00000
     38       2.9460      2.00000
     39       2.9778      2.00000
     40       3.0229      2.00000
     41       3.0837      2.00000
     42       3.1627      2.00000
     43       3.1983      2.00000
     44       3.2568      2.00000
     45       3.2902      2.00000
     46       3.3529      2.00000
     47       3.9343      2.00000
     48       4.3370      2.00000
     49       5.1776      2.00000
     50       5.4021      2.00000
     51       5.6102      2.00000
     52       5.7141      2.00000
     53       5.8991      2.00000
     54       6.1663      2.00000
     55       6.5193      2.00000
     56       6.6033      2.00000
     57       7.7009      0.00000
     58       8.0155      0.00000
     59       8.1278      0.00000
     60       8.4072      0.00000
     61      11.1730      0.00000
     62      11.2546      0.00000
     63      11.3855      0.00000
     64      11.6311      0.00000
     65      11.9518      0.00000
     66      12.1701      0.00000
     67      12.6181      0.00000
     68      12.7772      0.00000

 k-point    25 :       0.0000    0.3947    0.0000
  band No.  band energies     occupation 
      1      -6.4952      2.00000
      2      -6.2747      2.00000
      3      -6.1022      2.00000
      4      -6.0048      2.00000
      5       0.4224      2.00000
      6       0.4382      2.00000
      7       0.6266      2.00000
      8       0.8538      2.00000
      9       0.8855      2.00000
     10       0.9419      2.00000
     11       1.0422      2.00000
     12       1.1044      2.00000
     13       1.2374      2.00000
     14       1.3062      2.00000
     15       1.3829      2.00000
     16       1.4153      2.00000
     17       1.5840      2.00000
     18       1.6346      2.00000
     19       1.7073      2.00000
     20       1.8009      2.00000
     21       1.9293      2.00000
     22       1.9857      2.00000
     23       2.0712      2.00000
     24       2.1219      2.00000
     25       2.2454      2.00000
     26       2.3222      2.00000
     27       2.3983      2.00000
     28       2.4191      2.00000
     29       2.4713      2.00000
     30       2.5137      2.00000
     31       2.5465      2.00000
     32       2.6012      2.00000
     33       2.6640      2.00000
     34       2.7086      2.00000
     35       2.7778      2.00000
     36       2.7928      2.00000
     37       2.8297      2.00000
     38       2.9468      2.00000
     39       2.9881      2.00000
     40       3.0250      2.00000
     41       3.0925      2.00000
     42       3.1476      2.00000
     43       3.1971      2.00000
     44       3.2676      2.00000
     45       3.2987      2.00000
     46       3.3709      2.00000
     47       3.8754      2.00000
     48       4.3965      2.00000
     49       5.1148      2.00000
     50       5.3768      2.00000
     51       5.5724      2.00000
     52       5.7222      2.00000
     53       5.9196      2.00000
     54       6.1805      2.00000
     55       6.5299      2.00000
     56       6.6052      2.00000
     57       7.6592      0.00000
     58       8.0362      0.00000
     59       8.1126      0.00000
     60       8.4770      0.00000
     61      11.1580      0.00000
     62      11.2627      0.00000
     63      11.4099      0.00000
     64      11.6766      0.00000
     65      11.9578      0.00000
     66      12.1648      0.00000
     67      12.6302      0.00000
     68      12.7775      0.00000

 k-point    26 :       0.0000    0.3684    0.0000
  band No.  band energies     occupation 
      1      -6.5147      2.00000
      2      -6.2563      2.00000
      3      -6.1049      2.00000
      4      -6.0002      2.00000
      5       0.4302      2.00000
      6       0.4456      2.00000
      7       0.6058      2.00000
      8       0.8539      2.00000
      9       0.8953      2.00000
     10       0.9253      2.00000
     11       1.0509      2.00000
     12       1.1071      2.00000
     13       1.2498      2.00000
     14       1.3114      2.00000
     15       1.3859      2.00000
     16       1.4196      2.00000
     17       1.5748      2.00000
     18       1.6331      2.00000
     19       1.7273      2.00000
     20       1.8155      2.00000
     21       1.9365      2.00000
     22       1.9821      2.00000
     23       2.0655      2.00000
     24       2.1114      2.00000
     25       2.2451      2.00000
     26       2.3167      2.00000
     27       2.3894      2.00000
     28       2.4214      2.00000
     29       2.4685      2.00000
     30       2.4976      2.00000
     31       2.5406      2.00000
     32       2.6113      2.00000
     33       2.6656      2.00000
     34       2.6994      2.00000
     35       2.7703      2.00000
     36       2.7988      2.00000
     37       2.8265      2.00000
     38       2.9454      2.00000
     39       2.9961      2.00000
     40       3.0282      2.00000
     41       3.1009      2.00000
     42       3.1334      2.00000
     43       3.1958      2.00000
     44       3.2783      2.00000
     45       3.3097      2.00000
     46       3.3916      2.00000
     47       3.8174      2.00000
     48       4.4535      2.00000
     49       5.0520      2.00000
     50       5.3363      2.00000
     51       5.5269      2.00000
     52       5.7333      2.00000
     53       5.9400      2.00000
     54       6.1965      2.00000
     55       6.5421      2.00000
     56       6.6085      2.00000
     57       7.6103      0.00000
     58       8.0502      0.00000
     59       8.1139      0.00000
     60       8.5545      0.00000
     61      11.1327      0.00000
     62      11.2762      0.00000
     63      11.4339      0.00000
     64      11.7257      0.00000
     65      11.9766      0.00000
     66      12.1589      0.00000
     67      12.6387      0.00000
     68      12.7862      0.00000

 k-point    27 :       0.0000    0.3421    0.0000
  band No.  band energies     occupation 
      1      -6.5341      2.00000
      2      -6.2387      2.00000
      3      -6.1068      2.00000
      4      -5.9952      2.00000
      5       0.4392      2.00000
      6       0.4543      2.00000
      7       0.5881      2.00000
      8       0.8366      2.00000
      9       0.9026      2.00000
     10       0.9270      2.00000
     11       1.0586      2.00000
     12       1.1103      2.00000
     13       1.2604      2.00000
     14       1.3120      2.00000
     15       1.3936      2.00000
     16       1.4263      2.00000
     17       1.5657      2.00000
     18       1.6333      2.00000
     19       1.7493      2.00000
     20       1.8312      2.00000
     21       1.9437      2.00000
     22       1.9775      2.00000
     23       2.0613      2.00000
     24       2.0964      2.00000
     25       2.2455      2.00000
     26       2.3128      2.00000
     27       2.3818      2.00000
     28       2.4208      2.00000
     29       2.4619      2.00000
     30       2.4824      2.00000
     31       2.5342      2.00000
     32       2.6187      2.00000
     33       2.6653      2.00000
     34       2.6908      2.00000
     35       2.7626      2.00000
     36       2.8084      2.00000
     37       2.8290      2.00000
     38       2.9427      2.00000
     39       3.0018      2.00000
     40       3.0321      2.00000
     41       3.1054      2.00000
     42       3.1240      2.00000
     43       3.1942      2.00000
     44       3.2896      2.00000
     45       3.3218      2.00000
     46       3.4139      2.00000
     47       3.7613      2.00000
     48       4.5053      2.00000
     49       4.9913      2.00000
     50       5.2855      2.00000
     51       5.4770      2.00000
     52       5.7426      2.00000
     53       5.9601      2.00000
     54       6.2133      2.00000
     55       6.5550      2.00000
     56       6.6139      2.00000
     57       7.5522      0.00000
     58       8.0619      0.00000
     59       8.1308      0.00000
     60       8.6383      0.00000
     61      11.0965      0.00000
     62      11.2920      0.00000
     63      11.4589      0.00000
     64      11.7609      0.00000
     65      12.0225      0.00000
     66      12.1533      0.00000
     67      12.6368      0.00000
     68      12.8078      0.00000

 k-point    28 :       0.0000    0.3158    0.0000
  band No.  band energies     occupation 
      1      -6.5530      2.00000
      2      -6.2229      2.00000
      3      -6.1075      2.00000
      4      -5.9902      2.00000
      5       0.4485      2.00000
      6       0.4641      2.00000
      7       0.5739      2.00000
      8       0.8177      2.00000
      9       0.8866      2.00000
     10       0.9527      2.00000
     11       1.0650      2.00000
     12       1.1140      2.00000
     13       1.2677      2.00000
     14       1.3083      2.00000
     15       1.4051      2.00000
     16       1.4361      2.00000
     17       1.5575      2.00000
     18       1.6352      2.00000
     19       1.7719      2.00000
     20       1.8468      2.00000
     21       1.9488      2.00000
     22       1.9747      2.00000
     23       2.0587      2.00000
     24       2.0789      2.00000
     25       2.2433      2.00000
     26       2.3113      2.00000
     27       2.3757      2.00000
     28       2.4160      2.00000
     29       2.4523      2.00000
     30       2.4718      2.00000
     31       2.5251      2.00000
     32       2.6206      2.00000
     33       2.6654      2.00000
     34       2.6857      2.00000
     35       2.7589      2.00000
     36       2.8147      2.00000
     37       2.8376      2.00000
     38       2.9395      2.00000
     39       3.0056      2.00000
     40       3.0361      2.00000
     41       3.0997      2.00000
     42       3.1263      2.00000
     43       3.1922      2.00000
     44       3.3018      2.00000
     45       3.3346      2.00000
     46       3.4368      2.00000
     47       3.7078      2.00000
     48       4.5479      2.00000
     49       4.9349      2.00000
     50       5.2301      2.00000
     51       5.4244      2.00000
     52       5.7485      2.00000
     53       5.9800      2.00000
     54       6.2299      2.00000
     55       6.5682      2.00000
     56       6.6217      2.00000
     57       7.4851      0.00000
     58       8.0687      0.00000
     59       8.1675      0.00000
     60       8.7264      0.00000
     61      11.0489      0.00000
     62      11.3074      0.00000
     63      11.4851      0.00000
     64      11.7722      0.00000
     65      12.0969      0.00000
     66      12.1545      0.00000
     67      12.6266      0.00000
     68      12.8435      0.00000

 k-point    29 :       0.0000    0.2895    0.0000
  band No.  band energies     occupation 
      1      -6.5711      2.00000
      2      -6.2098      2.00000
      3      -6.1062      2.00000
      4      -5.9851      2.00000
      5       0.4573      2.00000
      6       0.4749      2.00000
      7       0.5637      2.00000
      8       0.7993      2.00000
      9       0.8700      2.00000
     10       0.9783      2.00000
     11       1.0702      2.00000
     12       1.1176      2.00000
     13       1.2714      2.00000
     14       1.3021      2.00000
     15       1.4190      2.00000
     16       1.4485      2.00000
     17       1.5509      2.00000
     18       1.6388      2.00000
     19       1.7924      2.00000
     20       1.8610      2.00000
     21       1.9481      2.00000
     22       1.9797      2.00000
     23       2.0562      2.00000
     24       2.0632      2.00000
     25       2.2363      2.00000
     26       2.3114      2.00000
     27       2.3709      2.00000
     28       2.4080      2.00000
     29       2.4396      2.00000
     30       2.4679      2.00000
     31       2.5127      2.00000
     32       2.6180      2.00000
     33       2.6655      2.00000
     34       2.6851      2.00000
     35       2.7593      2.00000
     36       2.8187      2.00000
     37       2.8488      2.00000
     38       2.9367      2.00000
     39       3.0080      2.00000
     40       3.0395      2.00000
     41       3.0914      2.00000
     42       3.1340      2.00000
     43       3.1898      2.00000
     44       3.3142      2.00000
     45       3.3485      2.00000
     46       3.4587      2.00000
     47       3.6577      2.00000
     48       4.5754      2.00000
     49       4.8852      2.00000
     50       5.1766      2.00000
     51       5.3705      2.00000
     52       5.7507      2.00000
     53       5.9993      2.00000
     54       6.2458      2.00000
     55       6.5811      2.00000
     56       6.6321      2.00000
     57       7.4104      0.00000
     58       8.0684      0.00000
     59       8.2257      0.00000
     60       8.8168      0.00000
     61      10.9897      0.00000
     62      11.3211      0.00000
     63      11.5105      0.00000
     64      11.7666      0.00000
     65      12.1262      0.00000
     66      12.2275      0.00000
     67      12.6108      0.00000
     68      12.8950      0.00000

 k-point    30 :       0.0000    0.2632    0.0000
  band No.  band energies     occupation 
      1      -6.5882      2.00000
      2      -6.1999      2.00000
      3      -6.1025      2.00000
      4      -5.9803      2.00000
      5       0.4646      2.00000
      6       0.4865      2.00000
      7       0.5580      2.00000
      8       0.7821      2.00000
      9       0.8545      2.00000
     10       1.0022      2.00000
     11       1.0745      2.00000
     12       1.1205      2.00000
     13       1.2714      2.00000
     14       1.2950      2.00000
     15       1.4338      2.00000
     16       1.4625      2.00000
     17       1.5469      2.00000
     18       1.6436      2.00000
     19       1.8062      2.00000
     20       1.8733      2.00000
     21       1.9451      2.00000
     22       1.9920      2.00000
     23       2.0418      2.00000
     24       2.0636      2.00000
     25       2.2246      2.00000
     26       2.3107      2.00000
     27       2.3673      2.00000
     28       2.3997      2.00000
     29       2.4257      2.00000
     30       2.4681      2.00000
     31       2.4992      2.00000
     32       2.6138      2.00000
     33       2.6629      2.00000
     34       2.6881      2.00000
     35       2.7632      2.00000
     36       2.8223      2.00000
     37       2.8590      2.00000
     38       2.9351      2.00000
     39       3.0090      2.00000
     40       3.0420      2.00000
     41       3.0851      2.00000
     42       3.1431      2.00000
     43       3.1876      2.00000
     44       3.3256      2.00000
     45       3.3645      2.00000
     46       3.4774      2.00000
     47       3.6129      2.00000
     48       4.5804      2.00000
     49       4.8436      2.00000
     50       5.1334      2.00000
     51       5.3162      2.00000
     52       5.7500      2.00000
     53       6.0183      2.00000
     54       6.2606      2.00000
     55       6.5938      2.00000
     56       6.6445      2.00000
     57       7.3303      0.00000
     58       8.0630      0.00000
     59       8.3021      0.00000
     60       8.9077      0.00000
     61      10.9191      0.00000
     62      11.3320      0.00000
     63      11.5308      0.00000
     64      11.7553      0.00000
     65      12.1212      0.00000
     66      12.3500      0.00000
     67      12.5954      0.00000
     68      12.9549      0.00000

 k-point    31 :       0.0000    0.2368    0.0000
  band No.  band energies     occupation 
      1      -6.6040      2.00000
      2      -6.1934      2.00000
      3      -6.0963      2.00000
      4      -5.9756      2.00000
      5       0.4696      2.00000
      6       0.4983      2.00000
      7       0.5572      2.00000
      8       0.7666      2.00000
      9       0.8405      2.00000
     10       1.0239      2.00000
     11       1.0781      2.00000
     12       1.1221      2.00000
     13       1.2681      2.00000
     14       1.2885      2.00000
     15       1.4482      2.00000
     16       1.4772      2.00000
     17       1.5461      2.00000
     18       1.6491      2.00000
     19       1.8083      2.00000
     20       1.8845      2.00000
     21       1.9450      2.00000
     22       2.0072      2.00000
     23       2.0273      2.00000
     24       2.0716      2.00000
     25       2.2096      2.00000
     26       2.3066      2.00000
     27       2.3647      2.00000
     28       2.3923      2.00000
     29       2.4124      2.00000
     30       2.4685      2.00000
     31       2.4890      2.00000
     32       2.6094      2.00000
     33       2.6577      2.00000
     34       2.6918      2.00000
     35       2.7698      2.00000
     36       2.8260      2.00000
     37       2.8668      2.00000
     38       2.9353      2.00000
     39       3.0086      2.00000
     40       3.0440      2.00000
     41       3.0817      2.00000
     42       3.1523      2.00000
     43       3.1864      2.00000
     44       3.3353      2.00000
     45       3.3830      2.00000
     46       3.4891      2.00000
     47       3.5774      2.00000
     48       4.5584      2.00000
     49       4.8087      2.00000
     50       5.1081      2.00000
     51       5.2627      2.00000
     52       5.7471      2.00000
     53       6.0370      2.00000
     54       6.2740      2.00000
     55       6.6061      2.00000
     56       6.6583      2.00000
     57       7.2469      0.00000
     58       8.0545      0.00000
     59       8.3928      0.00000
     60       8.9975      0.00000
     61      10.8378      0.00000
     62      11.3391      0.00000
     63      11.5404      0.00000
     64      11.7476      0.00000
     65      12.1136      0.00000
     66      12.4729      0.00000
     67      12.5860      0.00000
     68      13.0243      0.00000

 k-point    32 :       0.0000    0.2105    0.0000
  band No.  band energies     occupation 
      1      -6.6186      2.00000
      2      -6.1899      2.00000
      3      -6.0881      2.00000
      4      -5.9713      2.00000
      5       0.4725      2.00000
      6       0.5097      2.00000
      7       0.5606      2.00000
      8       0.7536      2.00000
      9       0.8282      2.00000
     10       1.0431      2.00000
     11       1.0810      2.00000
     12       1.1223      2.00000
     13       1.2618      2.00000
     14       1.2841      2.00000
     15       1.4600      2.00000
     16       1.4925      2.00000
     17       1.5493      2.00000
     18       1.6546      2.00000
     19       1.7981      2.00000
     20       1.8937      2.00000
     21       1.9484      2.00000
     22       2.0144      2.00000
     23       2.0253      2.00000
     24       2.0863      2.00000
     25       2.1930      2.00000
     26       2.2992      2.00000
     27       2.3616      2.00000
     28       2.3846      2.00000
     29       2.4017      2.00000
     30       2.4646      2.00000
     31       2.4876      2.00000
     32       2.6049      2.00000
     33       2.6505      2.00000
     34       2.6945      2.00000
     35       2.7785      2.00000
     36       2.8299      2.00000
     37       2.8719      2.00000
     38       2.9376      2.00000
     39       3.0069      2.00000
     40       3.0457      2.00000
     41       3.0807      2.00000
     42       3.1589      2.00000
     43       3.1895      2.00000
     44       3.3430      2.00000
     45       3.4018      2.00000
     46       3.4884      2.00000
     47       3.5588      2.00000
     48       4.5118      2.00000
     49       4.7766      2.00000
     50       5.1023      2.00000
     51       5.2124      2.00000
     52       5.7431      2.00000
     53       6.0558      2.00000
     54       6.2864      2.00000
     55       6.6180      2.00000
     56       6.6724      2.00000
     57       7.1621      0.00000
     58       8.0445      0.00000
     59       8.4947      0.00000
     60       9.0848      0.00000
     61      10.7468      0.00000
     62      11.3405      0.00000
     63      11.5369      0.00000
     64      11.7491      0.00000
     65      12.1057      0.00000
     66      12.5193      0.00000
     67      12.6576      0.00000
     68      13.1244      0.00000

 k-point    33 :       0.0000    0.1842    0.0000
  band No.  band energies     occupation 
      1      -6.6316      2.00000
      2      -6.1886      2.00000
      3      -6.0790      2.00000
      4      -5.9673      2.00000
      5       0.4739      2.00000
      6       0.5202      2.00000
      7       0.5664      2.00000
      8       0.7438      2.00000
      9       0.8178      2.00000
     10       1.0590      2.00000
     11       1.0832      2.00000
     12       1.1218      2.00000
     13       1.2535      2.00000
     14       1.2816      2.00000
     15       1.4685      2.00000
     16       1.5080      2.00000
     17       1.5566      2.00000
     18       1.6596      2.00000
     19       1.7801      2.00000
     20       1.8980      2.00000
     21       1.9513      2.00000
     22       2.0137      2.00000
     23       2.0377      2.00000
     24       2.1062      2.00000
     25       2.1778      2.00000
     26       2.2902      2.00000
     27       2.3547      2.00000
     28       2.3764      2.00000
     29       2.3953      2.00000
     30       2.4598      2.00000
     31       2.4923      2.00000
     32       2.5997      2.00000
     33       2.6417      2.00000
     34       2.6960      2.00000
     35       2.7880      2.00000
     36       2.8338      2.00000
     37       2.8750      2.00000
     38       2.9417      2.00000
     39       3.0045      2.00000
     40       3.0471      2.00000
     41       3.0811      2.00000
     42       3.1599      2.00000
     43       3.1999      2.00000
     44       3.3488      2.00000
     45       3.4115      2.00000
     46       3.4856      2.00000
     47       3.5564      2.00000
     48       4.4467      2.00000
     49       4.7474      2.00000
     50       5.1031      2.00000
     51       5.1739      2.00000
     52       5.7384      2.00000
     53       6.0750      2.00000
     54       6.2982      2.00000
     55       6.6287      2.00000
     56       6.6862      2.00000
     57       7.0778      0.00000
     58       8.0340      0.00000
     59       8.6049      0.00000
     60       9.1681      0.00000
     61      10.6479      0.00000
     62      11.3335      0.00000
     63      11.5246      0.00000
     64      11.7592      0.00000
     65      12.0980      0.00000
     66      12.5067      0.00000
     67      12.7831      0.00000
     68      13.2009      0.00000

 k-point    34 :       0.0000    0.1579    0.0000
  band No.  band energies     occupation 
      1      -6.6432      2.00000
      2      -6.1886      2.00000
      3      -6.0698      2.00000
      4      -5.9638      2.00000
      5       0.4748      2.00000
      6       0.5295      2.00000
      7       0.5725      2.00000
      8       0.7378      2.00000
      9       0.8093      2.00000
     10       1.0708      2.00000
     11       1.0844      2.00000
     12       1.1223      2.00000
     13       1.2445      2.00000
     14       1.2804      2.00000
     15       1.4743      2.00000
     16       1.5221      2.00000
     17       1.5678      2.00000
     18       1.6634      2.00000
     19       1.7589      2.00000
     20       1.8952      2.00000
     21       1.9514      2.00000
     22       2.0224      2.00000
     23       2.0492      2.00000
     24       2.1220      2.00000
     25       2.1721      2.00000
     26       2.2812      2.00000
     27       2.3427      2.00000
     28       2.3693      2.00000
     29       2.3918      2.00000
     30       2.4577      2.00000
     31       2.4986      2.00000
     32       2.5938      2.00000
     33       2.6319      2.00000
     34       2.6964      2.00000
     35       2.7970      2.00000
     36       2.8376      2.00000
     37       2.8774      2.00000
     38       2.9471      2.00000
     39       3.0018      2.00000
     40       3.0483      2.00000
     41       3.0825      2.00000
     42       3.1567      2.00000
     43       3.2153      2.00000
     44       3.3529      2.00000
     45       3.4019      2.00000
     46       3.5027      2.00000
     47       3.5593      2.00000
     48       4.3693      2.00000
     49       4.7236      2.00000
     50       5.0803      2.00000
     51       5.1706      2.00000
     52       5.7339      2.00000
     53       6.0948      2.00000
     54       6.3101      2.00000
     55       6.6373      2.00000
     56       6.6992      2.00000
     57       6.9960     -0.00000
     58       8.0237      0.00000
     59       8.7207      0.00000
     60       9.2457      0.00000
     61      10.5430      0.00000
     62      11.3156      0.00000
     63      11.5120      0.00000
     64      11.7733      0.00000
     65      12.0907      0.00000
     66      12.4884      0.00000
     67      12.9014      0.00000
     68      13.2602      0.00000

 k-point    35 :       0.0000    0.1316    0.0000
  band No.  band energies     occupation 
      1      -6.6530      2.00000
      2      -6.1892      2.00000
      3      -6.0612      2.00000
      4      -5.9607      2.00000
      5       0.4757      2.00000
      6       0.5375      2.00000
      7       0.5771      2.00000
      8       0.7361      2.00000
      9       0.8025      2.00000
     10       1.0768      2.00000
     11       1.0847      2.00000
     12       1.1259      2.00000
     13       1.2355      2.00000
     14       1.2800      2.00000
     15       1.4787      2.00000
     16       1.5330      2.00000
     17       1.5823      2.00000
     18       1.6656      2.00000
     19       1.7383      2.00000
     20       1.8841      2.00000
     21       1.9525      2.00000
     22       2.0362      2.00000
     23       2.0599      2.00000
     24       2.1214      2.00000
     25       2.1872      2.00000
     26       2.2730      2.00000
     27       2.3280      2.00000
     28       2.3631      2.00000
     29       2.3895      2.00000
     30       2.4586      2.00000
     31       2.5043      2.00000
     32       2.5867      2.00000
     33       2.6223      2.00000
     34       2.6962      2.00000
     35       2.8044      2.00000
     36       2.8413      2.00000
     37       2.8800      2.00000
     38       2.9533      2.00000
     39       2.9992      2.00000
     40       3.0491      2.00000
     41       3.0844      2.00000
     42       3.1521      2.00000
     43       3.2321      2.00000
     44       3.3548      2.00000
     45       3.3854      2.00000
     46       3.5316      2.00000
     47       3.5655      2.00000
     48       4.2845      2.00000
     49       4.7071      2.00000
     50       5.0396      2.00000
     51       5.1912      2.00000
     52       5.7298      2.00000
     53       6.1149      2.00000
     54       6.3233      2.00000
     55       6.6421      2.00000
     56       6.7108      2.00001
     57       6.9196     -0.00000
     58       8.0142      0.00000
     59       8.8395      0.00000
     60       9.3156      0.00000
     61      10.4348      0.00000
     62      11.2877      0.00000
     63      11.5041      0.00000
     64      11.7879      0.00000
     65      12.0841      0.00000
     66      12.4707      0.00000
     67      12.9990      0.00000
     68      13.2695      0.00000

 k-point    36 :       0.0000    0.1053    0.0000
  band No.  band energies     occupation 
      1      -6.6612      2.00000
      2      -6.1902      2.00000
      3      -6.0536      2.00000
      4      -5.9581      2.00000
      5       0.4769      2.00000
      6       0.5442      2.00000
      7       0.5793      2.00000
      8       0.7383      2.00000
      9       0.7972      2.00000
     10       1.0767      2.00000
     11       1.0852      2.00000
     12       1.1327      2.00000
     13       1.2272      2.00000
     14       1.2799      2.00000
     15       1.4828      2.00000
     16       1.5404      2.00000
     17       1.5979      2.00000
     18       1.6656      2.00000
     19       1.7222      2.00000
     20       1.8664      2.00000
     21       1.9567      2.00000
     22       2.0493      2.00000
     23       2.0683      2.00000
     24       2.1161      2.00000
     25       2.2119      2.00000
     26       2.2661      2.00000
     27       2.3127      2.00000
     28       2.3566      2.00000
     29       2.3887      2.00000
     30       2.4614      2.00000
     31       2.5080      2.00000
     32       2.5787      2.00000
     33       2.6140      2.00000
     34       2.6956      2.00000
     35       2.8094      2.00000
     36       2.8447      2.00000
     37       2.8833      2.00000
     38       2.9596      2.00000
     39       2.9970      2.00000
     40       3.0495      2.00000
     41       3.0866      2.00000
     42       3.1470      2.00000
     43       3.2465      2.00000
     44       3.3532      2.00000
     45       3.3749      2.00000
     46       3.5441      2.00000
     47       3.5945      2.00000
     48       4.1962      2.00000
     49       4.6981      2.00000
     50       4.9979      2.00000
     51       5.2156      2.00000
     52       5.7264      2.00000
     53       6.1346      2.00000
     54       6.3390      2.00000
     55       6.6398      2.00000
     56       6.7207      2.00188
     57       6.8526     -0.00000
     58       8.0060      0.00000
     59       8.9581      0.00000
     60       9.3756      0.00000
     61      10.3268      0.00000
     62      11.2542      0.00000
     63      11.5011      0.00000
     64      11.8009      0.00000
     65      12.0781      0.00000
     66      12.4553      0.00000
     67      13.0761      0.00000
     68      13.2821      0.00000

 k-point    37 :       0.0000    0.0789    0.0000
  band No.  band energies     occupation 
      1      -6.6676      2.00000
      2      -6.1911      2.00000
      3      -6.0475      2.00000
      4      -5.9561      2.00000
      5       0.4782      2.00000
      6       0.5496      2.00000
      7       0.5792      2.00000
      8       0.7434      2.00000
      9       0.7930      2.00000
     10       1.0735      2.00000
     11       1.0856      2.00000
     12       1.1406      2.00000
     13       1.2198      2.00000
     14       1.2798      2.00000
     15       1.4869      2.00000
     16       1.5451      2.00000
     17       1.6109      2.00000
     18       1.6625      2.00000
     19       1.7157      2.00000
     20       1.8448      2.00000
     21       1.9628      2.00000
     22       2.0563      2.00000
     23       2.0731      2.00000
     24       2.1187      2.00000
     25       2.2356      2.00000
     26       2.2606      2.00000
     27       2.2985      2.00000
     28       2.3488      2.00000
     29       2.3910      2.00000
     30       2.4647      2.00000
     31       2.5086      2.00000
     32       2.5705      2.00000
     33       2.6082      2.00000
     34       2.6948      2.00000
     35       2.8123      2.00000
     36       2.8474      2.00000
     37       2.8872      2.00000
     38       2.9655      2.00000
     39       2.9953      2.00000
     40       3.0497      2.00000
     41       3.0888      2.00000
     42       3.1424      2.00000
     43       3.2548      2.00000
     44       3.3514      2.00000
     45       3.3725      2.00000
     46       3.5405      2.00000
     47       3.6439      2.00000
     48       4.1077      2.00000
     49       4.6956      2.00000
     50       4.9601      2.00000
     51       5.2376      2.00000
     52       5.7238      2.00000
     53       6.1525      2.00000
     54       6.3585      2.00000
     55       6.6255      2.00000
     56       6.7286      2.03223
     57       6.8015     -0.00000
     58       7.9993      0.00000
     59       9.0719      0.00000
     60       9.4225      0.00000
     61      10.2242      0.00000
     62      11.2209      0.00000
     63      11.5011      0.00000
     64      11.8115      0.00000
     65      12.0730      0.00000
     66      12.4428      0.00000
     67      13.1345      0.00000
     68      13.2955      0.00000

 k-point    38 :       0.0000    0.0526    0.0000
  band No.  band energies     occupation 
      1      -6.6722      2.00000
      2      -6.1919      2.00000
      3      -6.0430      2.00000
      4      -5.9546      2.00000
      5       0.4795      2.00000
      6       0.5537      2.00000
      7       0.5777      2.00000
      8       0.7495      2.00000
      9       0.7894      2.00000
     10       1.0701      2.00000
     11       1.0855      2.00000
     12       1.1479      2.00000
     13       1.2138      2.00000
     14       1.2796      2.00000
     15       1.4906      2.00000
     16       1.5478      2.00000
     17       1.6179      2.00000
     18       1.6581      2.00000
     19       1.7207      2.00000
     20       1.8216      2.00000
     21       1.9693      2.00000
     22       2.0540      2.00000
     23       2.0782      2.00000
     24       2.1281      2.00000
     25       2.2502      2.00000
     26       2.2605      2.00000
     27       2.2874      2.00000
     28       2.3399      2.00000
     29       2.3964      2.00000
     30       2.4672      2.00000
     31       2.5063      2.00000
     32       2.5638      2.00000
     33       2.6048      2.00000
     34       2.6940      2.00000
     35       2.8136      2.00000
     36       2.8494      2.00000
     37       2.8909      2.00000
     38       2.9703      2.00000
     39       2.9941      2.00000
     40       3.0496      2.00000
     41       3.0908      2.00000
     42       3.1387      2.00000
     43       3.2563      2.00000
     44       3.3543      2.00000
     45       3.3734      2.00000
     46       3.5334      2.00000
     47       3.7018      2.00000
     48       4.0218      2.00000
     49       4.6975      2.00000
     50       4.9294      2.00000
     51       5.2545      2.00000
     52       5.7221      2.00000
     53       6.1667      2.00000
     54       6.3824      2.00000
     55       6.5970      2.00000
     56       6.7342      2.07062
     57       6.7713     -0.00213
     58       7.9944      0.00000
     59       9.1739      0.00000
     60       9.4531      0.00000
     61      10.1352      0.00000
     62      11.1931      0.00000
     63      11.5022      0.00000
     64      11.8194      0.00000
     65      12.0690      0.00000
     66      12.4337      0.00000
     67      13.1757      0.00000
     68      13.3043      0.00000

 k-point    39 :       0.0000    0.0263    0.0000
  band No.  band energies     occupation 
      1      -6.6750      2.00000
      2      -6.1924      2.00000
      3      -6.0403      2.00000
      4      -5.9537      2.00000
      5       0.4805      2.00000
      6       0.5565      2.00000
      7       0.5761      2.00000
      8       0.7548      2.00000
      9       0.7867      2.00000
     10       1.0676      2.00000
     11       1.0852      2.00000
     12       1.1530      2.00000
     13       1.2098      2.00000
     14       1.2795      2.00000
     15       1.4935      2.00000
     16       1.5490      2.00000
     17       1.6193      2.00000
     18       1.6555      2.00000
     19       1.7330      2.00000
     20       1.8002      2.00000
     21       1.9745      2.00000
     22       2.0490      2.00000
     23       2.0826      2.00000
     24       2.1374      2.00000
     25       2.2487      2.00000
     26       2.2689      2.00000
     27       2.2832      2.00000
     28       2.3316      2.00000
     29       2.4026      2.00000
     30       2.4680      2.00000
     31       2.5030      2.00000
     32       2.5596      2.00000
     33       2.6032      2.00000
     34       2.6934      2.00000
     35       2.8142      2.00000
     36       2.8507      2.00000
     37       2.8934      2.00000
     38       2.9734      2.00000
     39       2.9935      2.00000
     40       3.0495      2.00000
     41       3.0922      2.00000
     42       3.1364      2.00000
     43       3.2546      2.00000
     44       3.3587      2.00000
     45       3.3754      2.00000
     46       3.5269      2.00000
     47       3.7634      2.00000
     48       3.9430      2.00000
     49       4.7010      2.00000
     50       4.9087      2.00000
     51       5.2652      2.00000
     52       5.7211      2.00000
     53       6.1759      2.00000
     54       6.4071      2.00000
     55       6.5637      2.00000
     56       6.7374      2.01319
     57       6.7582     -0.07078
     58       7.9914      0.00000
     59       9.2513      0.00000
     60       9.4661      0.00000
     61      10.0720      0.00000
     62      11.1747      0.00000
     63      11.5033      0.00000
     64      11.8242      0.00000
     65      12.0664      0.00000
     66      12.4281      0.00000
     67      13.2003      0.00000
     68      13.3094      0.00000

 k-point    40 :       0.0000    0.0000    0.0000
  band No.  band energies     occupation 
      1      -6.6759      2.00000
      2      -6.1926      2.00000
      3      -6.0394      2.00000
      4      -5.9534      2.00000
      5       0.4808      2.00000
      6       0.5575      2.00000
      7       0.5753      2.00000
      8       0.7569      2.00000
      9       0.7855      2.00000
     10       1.0667      2.00000
     11       1.0850      2.00000
     12       1.1549      2.00000
     13       1.2083      2.00000
     14       1.2794      2.00000
     15       1.4945      2.00000
     16       1.5494      2.00000
     17       1.6190      2.00000
     18       1.6548      2.00000
     19       1.7412      2.00000
     20       1.7893      2.00000
     21       1.9765      2.00000
     22       2.0468      2.00000
     23       2.0842      2.00000
     24       2.1411      2.00000
     25       2.2471      2.00000
     26       2.2701      2.00000
     27       2.2849      2.00000
     28       2.3277      2.00000
     29       2.4055      2.00000
     30       2.4679      2.00000
     31       2.5015      2.00000
     32       2.5583      2.00000
     33       2.6028      2.00000
     34       2.6932      2.00000
     35       2.8143      2.00000
     36       2.8511      2.00000
     37       2.8944      2.00000
     38       2.9745      2.00000
     39       2.9934      2.00000
     40       3.0495      2.00000
     41       3.0926      2.00000
     42       3.1356      2.00000
     43       3.2536      2.00000
     44       3.3605      2.00000
     45       3.3766      2.00000
     46       3.5243      2.00000
     47       3.8043      2.00000
     48       3.8963      2.00000
     49       4.7026      2.00000
     50       4.9012      2.00000
     51       5.2688      2.00000
     52       5.7208      2.00000
     53       6.1790      2.00000
     54       6.4198      2.00000
     55       6.5472      2.00000
     56       6.7384      1.96792
     57       6.7548     -0.01076
     58       7.9903      0.00000
     59       9.2822      0.00000
     60       9.4677      0.00000
     61      10.0487      0.00000
     62      11.1683      0.00000
     63      11.5037      0.00000
     64      11.8258      0.00000
     65      12.0655      0.00000
     66      12.4262      0.00000
     67      13.2086      0.00000
     68      13.3119      0.00000

 k-point    41 :       0.0000    0.0000    0.0000
  band No.  band energies     occupation 
      1      -6.6759      2.00000
      2      -6.1926      2.00000
      3      -6.0394      2.00000
      4      -5.9534      2.00000
      5       0.4808      2.00000
      6       0.5575      2.00000
      7       0.5753      2.00000
      8       0.7569      2.00000
      9       0.7855      2.00000
     10       1.0667      2.00000
     11       1.0850      2.00000
     12       1.1549      2.00000
     13       1.2083      2.00000
     14       1.2794      2.00000
     15       1.4945      2.00000
     16       1.5494      2.00000
     17       1.6190      2.00000
     18       1.6548      2.00000
     19       1.7412      2.00000
     20       1.7893      2.00000
     21       1.9765      2.00000
     22       2.0468      2.00000
     23       2.0842      2.00000
     24       2.1411      2.00000
     25       2.2471      2.00000
     26       2.2701      2.00000
     27       2.2849      2.00000
     28       2.3277      2.00000
     29       2.4055      2.00000
     30       2.4679      2.00000
     31       2.5015      2.00000
     32       2.5583      2.00000
     33       2.6028      2.00000
     34       2.6932      2.00000
     35       2.8143      2.00000
     36       2.8511      2.00000
     37       2.8944      2.00000
     38       2.9745      2.00000
     39       2.9934      2.00000
     40       3.0495      2.00000
     41       3.0926      2.00000
     42       3.1356      2.00000
     43       3.2536      2.00000
     44       3.3605      2.00000
     45       3.3766      2.00000
     46       3.5243      2.00000
     47       3.8043      2.00000
     48       3.8963      2.00000
     49       4.7026      2.00000
     50       4.9012      2.00000
     51       5.2688      2.00000
     52       5.7208      2.00000
     53       6.1790      2.00000
     54       6.4198      2.00000
     55       6.5472      2.00000
     56       6.7384      1.96792
     57       6.7548     -0.01076
     58       7.9903      0.00000
     59       9.2822      0.00000
     60       9.4677      0.00000
     61      10.0487      0.00000
     62      11.1683      0.00000
     63      11.5037      0.00000
     64      11.8258      0.00000
     65      12.0655      0.00000
     66      12.4262      0.00000
     67      13.2087      0.00000
     68      13.3115      0.00000

 k-point    42 :       0.0000    0.0000    0.0263
  band No.  band energies     occupation 
      1      -6.6753      2.00000
      2      -6.1936      2.00000
      3      -6.0393      2.00000
      4      -5.9532      2.00000
      5       0.4807      2.00000
      6       0.5578      2.00000
      7       0.5757      2.00000
      8       0.7536      2.00000
      9       0.7885      2.00000
     10       1.0570      2.00000
     11       1.0885      2.00000
     12       1.1609      2.00000
     13       1.2089      2.00000
     14       1.2821      2.00000
     15       1.4945      2.00000
     16       1.5495      2.00000
     17       1.6190      2.00000
     18       1.6547      2.00000
     19       1.7415      2.00000
     20       1.7897      2.00000
     21       1.9749      2.00000
     22       2.0425      2.00000
     23       2.0866      2.00000
     24       2.1430      2.00000
     25       2.2419      2.00000
     26       2.2675      2.00000
     27       2.2874      2.00000
     28       2.3313      2.00000
     29       2.4083      2.00000
     30       2.4663      2.00000
     31       2.5005      2.00000
     32       2.5575      2.00000
     33       2.6017      2.00000
     34       2.6973      2.00000
     35       2.8137      2.00000
     36       2.8478      2.00000
     37       2.8954      2.00000
     38       2.9735      2.00000
     39       2.9933      2.00000
     40       3.0497      2.00000
     41       3.0916      2.00000
     42       3.1316      2.00000
     43       3.2588      2.00000
     44       3.3604      2.00000
     45       3.3784      2.00000
     46       3.5231      2.00000
     47       3.8033      2.00000
     48       3.8981      2.00000
     49       4.7011      2.00000
     50       4.9035      2.00000
     51       5.2730      2.00000
     52       5.7151      2.00000
     53       6.1773      2.00000
     54       6.4185      2.00000
     55       6.5226      2.00000
     56       6.7371      2.02532
     57       6.7805     -0.00001
     58       7.9991      0.00000
     59       9.2679      0.00000
     60       9.4797      0.00000
     61      10.0517      0.00000
     62      11.1707      0.00000
     63      11.5032      0.00000
     64      11.8237      0.00000
     65      12.0640      0.00000
     66      12.4233      0.00000
     67      13.2116      0.00000
     68      13.3124      0.00000

 k-point    43 :       0.0000    0.0000    0.0526
  band No.  band energies     occupation 
      1      -6.6732      2.00000
      2      -6.1967      2.00000
      3      -6.0391      2.00000
      4      -5.9528      2.00000
      5       0.4802      2.00000
      6       0.5584      2.00000
      7       0.5773      2.00000
      8       0.7464      2.00000
      9       0.7948      2.00000
     10       1.0382      2.00000
     11       1.0913      2.00000
     12       1.1760      2.00000
     13       1.2105      2.00000
     14       1.2902      2.00000
     15       1.4942      2.00000
     16       1.5500      2.00000
     17       1.6190      2.00000
     18       1.6545      2.00000
     19       1.7423      2.00000
     20       1.7911      2.00000
     21       1.9700      2.00000
     22       2.0322      2.00000
     23       2.0917      2.00000
     24       2.1479      2.00000
     25       2.2293      2.00000
     26       2.2636      2.00000
     27       2.2901      2.00000
     28       2.3401      2.00000
     29       2.4159      2.00000
     30       2.4619      2.00000
     31       2.4980      2.00000
     32       2.5553      2.00000
     33       2.5991      2.00000
     34       2.7084      2.00000
     35       2.8117      2.00000
     36       2.8396      2.00000
     37       2.8971      2.00000
     38       2.9706      2.00000
     39       2.9927      2.00000
     40       3.0503      2.00000
     41       3.0878      2.00000
     42       3.1244      2.00000
     43       3.2706      2.00000
     44       3.3599      2.00000
     45       3.3844      2.00000
     46       3.5193      2.00000
     47       3.8004      2.00000
     48       3.9038      2.00000
     49       4.6964      2.00000
     50       4.9101      2.00000
     51       5.2853      2.00000
     52       5.6988      2.00000
     53       6.1717      2.00000
     54       6.4136      2.00000
     55       6.4703      2.00000
     56       6.7350      2.06677
     57       6.8361     -0.00000
     58       8.0249      0.00000
     59       9.2322      0.00000
     60       9.5083      0.00000
     61      10.0605      0.00000
     62      11.1776      0.00000
     63      11.5014      0.00000
     64      11.8178      0.00000
     65      12.0596      0.00000
     66      12.4145      0.00000
     67      13.2186      0.00000
     68      13.3152      0.00000

 k-point    44 :       0.0000    0.0000    0.0789
  band No.  band energies     occupation 
      1      -6.6698      2.00000
      2      -6.2017      2.00000
      3      -6.0387      2.00000
      4      -5.9523      2.00000
      5       0.4794      2.00000
      6       0.5584      2.00000
      7       0.5805      2.00000
      8       0.7387      2.00000
      9       0.8017      2.00000
     10       1.0169      2.00000
     11       1.0916      2.00000
     12       1.1953      2.00000
     13       1.2126      2.00000
     14       1.3037      2.00000
     15       1.4937      2.00000
     16       1.5509      2.00000
     17       1.6191      2.00000
     18       1.6541      2.00000
     19       1.7434      2.00000
     20       1.7936      2.00000
     21       1.9622      2.00000
     22       2.0192      2.00000
     23       2.0975      2.00000
     24       2.1533      2.00000
     25       2.2144      2.00000
     26       2.2598      2.00000
     27       2.2910      2.00000
     28       2.3497      2.00000
     29       2.4265      2.00000
     30       2.4565      2.00000
     31       2.4957      2.00000
     32       2.5522      2.00000
     33       2.5960      2.00000
     34       2.7239      2.00000
     35       2.8076      2.00000
     36       2.8298      2.00000
     37       2.8967      2.00000
     38       2.9657      2.00000
     39       2.9905      2.00000
     40       3.0505      2.00000
     41       3.0818      2.00000
     42       3.1215      2.00000
     43       3.2827      2.00000
     44       3.3588      2.00000
     45       3.3952      2.00000
     46       3.5131      2.00000
     47       3.7956      2.00000
     48       3.9138      2.00000
     49       4.6884      2.00000
     50       4.9208      2.00000
     51       5.3043      2.00000
     52       5.6737      2.00000
     53       6.1604      2.00000
     54       6.3912      2.00000
     55       6.4265      2.00000
     56       6.7318      2.06074
     57       6.9018     -0.00000
     58       8.0666      0.00000
     59       9.1849      0.00000
     60       9.5439      0.00000
     61      10.0752      0.00000
     62      11.1889      0.00000
     63      11.4982      0.00000
     64      11.8085      0.00000
     65      12.0522      0.00000
     66      12.4003      0.00000
     67      13.2286      0.00000
     68      13.3198      0.00000

 k-point    45 :       0.0000    0.0000    0.1053
  band No.  band energies     occupation 
      1      -6.6651      2.00000
      2      -6.2087      2.00000
      3      -6.0380      2.00000
      4      -5.9516      2.00000
      5       0.4782      2.00000
      6       0.5572      2.00000
      7       0.5856      2.00000
      8       0.7325      2.00000
      9       0.8084      2.00000
     10       0.9949      2.00000
     11       1.0905      2.00000
     12       1.2087      2.00000
     13       1.2222      2.00000
     14       1.3218      2.00000
     15       1.4928      2.00000
     16       1.5523      2.00000
     17       1.6193      2.00000
     18       1.6535      2.00000
     19       1.7446      2.00000
     20       1.7975      2.00000
     21       1.9517      2.00000
     22       2.0057      2.00000
     23       2.1031      2.00000
     24       2.1560      2.00000
     25       2.2013      2.00000
     26       2.2566      2.00000
     27       2.2906      2.00000
     28       2.3555      2.00000
     29       2.4372      2.00000
     30       2.4540      2.00000
     31       2.4956      2.00000
     32       2.5487      2.00000
     33       2.5931      2.00000
     34       2.7412      2.00000
     35       2.8000      2.00000
     36       2.8210      2.00000
     37       2.8924      2.00000
     38       2.9593      2.00000
     39       2.9858      2.00000
     40       3.0495      2.00000
     41       3.0780      2.00000
     42       3.1241      2.00000
     43       3.2914      2.00000
     44       3.3573      2.00000
     45       3.4107      2.00000
     46       3.5048      2.00000
     47       3.7890      2.00000
     48       3.9289      2.00000
     49       4.6770      2.00000
     50       4.9353      2.00000
     51       5.3273      2.00000
     52       5.6430      2.00000
     53       6.1398      2.00000
     54       6.3407      2.00000
     55       6.4134      2.00000
     56       6.7273      2.02266
     57       6.9707     -0.00000
     58       8.1223      0.00000
     59       9.1308      0.00000
     60       9.5815      0.00000
     61      10.0955      0.00000
     62      11.2040      0.00000
     63      11.4930      0.00000
     64      11.7967      0.00000
     65      12.0418      0.00000
     66      12.3812      0.00000
     67      13.2386      0.00000
     68      13.3297      0.00000

 k-point    46 :       0.0000    0.0000    0.1316
  band No.  band energies     occupation 
      1      -6.6591      2.00000
      2      -6.2175      2.00000
      3      -6.0370      2.00000
      4      -5.9510      2.00000
      5       0.4765      2.00000
      6       0.5544      2.00000
      7       0.5923      2.00000
      8       0.7287      2.00000
      9       0.8148      2.00000
     10       0.9733      2.00000
     11       1.0884      2.00000
     12       1.2103      2.00000
     13       1.2435      2.00000
     14       1.3436      2.00000
     15       1.4915      2.00000
     16       1.5542      2.00000
     17       1.6198      2.00000
     18       1.6527      2.00000
     19       1.7456      2.00000
     20       1.8029      2.00000
     21       1.9389      2.00000
     22       1.9931      2.00000
     23       2.1075      2.00000
     24       2.1525      2.00000
     25       2.1926      2.00000
     26       2.2544      2.00000
     27       2.2895      2.00000
     28       2.3546      2.00000
     29       2.4447      2.00000
     30       2.4564      2.00000
     31       2.5008      2.00000
     32       2.5455      2.00000
     33       2.5908      2.00000
     34       2.7583      2.00000
     35       2.7890      2.00000
     36       2.8143      2.00000
     37       2.8837      2.00000
     38       2.9517      2.00000
     39       2.9799      2.00000
     40       3.0476      2.00000
     41       3.0787      2.00000
     42       3.1312      2.00000
     43       3.2964      2.00000
     44       3.3552      2.00000
     45       3.4283      2.00000
     46       3.4954      2.00000
     47       3.7809      2.00000
     48       3.9496      2.00000
     49       4.6617      2.00000
     50       4.9530      2.00000
     51       5.3498      2.00000
     52       5.6119      2.00000
     53       6.1049      2.00000
     54       6.2964      2.00000
     55       6.4049      2.00000
     56       6.7214      2.00255
     57       7.0405      0.00000
     58       8.1902      0.00000
     59       9.0721      0.00000
     60       9.6191      0.00000
     61      10.1213      0.00000
     62      11.2223      0.00000
     63      11.4854      0.00000
     64      11.7836      0.00000
     65      12.0285      0.00000
     66      12.3578      0.00000
     67      13.2446      0.00000
     68      13.3411      0.00000

 k-point    47 :       0.0000    0.0000    0.1579
  band No.  band energies     occupation 
      1      -6.6517      2.00000
      2      -6.2280      2.00000
      3      -6.0356      2.00000
      4      -5.9505      2.00000
      5       0.4741      2.00000
      6       0.5503      2.00000
      7       0.6004      2.00000
      8       0.7281      2.00000
      9       0.8212      2.00000
     10       0.9526      2.00000
     11       1.0854      2.00000
     12       1.2100      2.00000
     13       1.2662      2.00000
     14       1.3675      2.00000
     15       1.4896      2.00000
     16       1.5566      2.00000
     17       1.6206      2.00000
     18       1.6519      2.00000
     19       1.7464      2.00000
     20       1.8096      2.00000
     21       1.9246      2.00000
     22       1.9820      2.00000
     23       2.1095      2.00000
     24       2.1440      2.00000
     25       2.1875      2.00000
     26       2.2532      2.00000
     27       2.2884      2.00000
     28       2.3478      2.00000
     29       2.4457      2.00000
     30       2.4647      2.00000
     31       2.5122      2.00000
     32       2.5435      2.00000
     33       2.5897      2.00000
     34       2.7700      2.00000
     35       2.7788      2.00000
     36       2.8079      2.00000
     37       2.8719      2.00000
     38       2.9435      2.00000
     39       2.9749      2.00000
     40       3.0456      2.00000
     41       3.0820      2.00000
     42       3.1424      2.00000
     43       3.2983      2.00000
     44       3.3528      2.00000
     45       3.4426      2.00000
     46       3.4888      2.00000
     47       3.7715      2.00000
     48       3.9764      2.00000
     49       4.6419      2.00000
     50       4.9733      2.00000
     51       5.3642      2.00000
     52       5.5886      2.00000
     53       6.0552      2.00000
     54       6.2669      2.00000
     55       6.3961      2.00000
     56       6.7140      2.00005
     57       7.1104      0.00000
     58       8.2680      0.00000
     59       9.0097      0.00000
     60       9.6554      0.00000
     61      10.1523      0.00000
     62      11.2426      0.00000
     63      11.4749      0.00000
     64      11.7701      0.00000
     65      12.0126      0.00000
     66      12.3306      0.00000
     67      13.2358      0.00000
     68      13.3422      0.00000

 k-point    48 :       0.0000    0.0000    0.1842
  band No.  band energies     occupation 
      1      -6.6432      2.00000
      2      -6.2401      2.00000
      3      -6.0337      2.00000
      4      -5.9503      2.00000
      5       0.4709      2.00000
      6       0.5450      2.00000
      7       0.6096      2.00000
      8       0.7306      2.00000
      9       0.8281      2.00000
     10       0.9334      2.00000
     11       1.0814      2.00000
     12       1.2090      2.00000
     13       1.2884      2.00000
     14       1.3923      2.00000
     15       1.4874      2.00000
     16       1.5596      2.00000
     17       1.6217      2.00000
     18       1.6511      2.00000
     19       1.7469      2.00000
     20       1.8171      2.00000
     21       1.9101      2.00000
     22       1.9728      2.00000
     23       2.1071      2.00000
     24       2.1354      2.00000
     25       2.1827      2.00000
     26       2.2506      2.00000
     27       2.2884      2.00000
     28       2.3388      2.00000
     29       2.4407      2.00000
     30       2.4776      2.00000
     31       2.5267      2.00000
     32       2.5430      2.00000
     33       2.5909      2.00000
     34       2.7599      2.00000
     35       2.7824      2.00000
     36       2.8014      2.00000
     37       2.8619      2.00000
     38       2.9353      2.00000
     39       2.9721      2.00000
     40       3.0439      2.00000
     41       3.0861      2.00000
     42       3.1571      2.00000
     43       3.2984      2.00000
     44       3.3501      2.00000
     45       3.4436      2.00000
     46       3.4942      2.00000
     47       3.7612      2.00000
     48       4.0090      2.00000
     49       4.6168      2.00000
     50       4.9957      2.00000
     51       5.3612      2.00000
     52       5.5814      2.00000
     53       5.9969      2.00000
     54       6.2491      2.00000
     55       6.3866      2.00000
     56       6.7050      2.00000
     57       7.1801      0.00000
     58       8.3538      0.00000
     59       8.9442      0.00000
     60       9.6896      0.00000
     61      10.1885      0.00000
     62      11.2634      0.00000
     63      11.4618      0.00000
     64      11.7569      0.00000
     65      11.9952      0.00000
     66      12.3004      0.00000
     67      13.2119      0.00000
     68      13.3349      0.00000

 k-point    49 :       0.0000    0.0000    0.2105
  band No.  band energies     occupation 
      1      -6.6334      2.00000
      2      -6.2536      2.00000
      3      -6.0315      2.00000
      4      -5.9504      2.00000
      5       0.4669      2.00000
      6       0.5387      2.00000
      7       0.6199      2.00000
      8       0.7355      2.00000
      9       0.8359      2.00000
     10       0.9160      2.00000
     11       1.0759      2.00000
     12       1.2078      2.00000
     13       1.3094      2.00000
     14       1.4164      2.00000
     15       1.4852      2.00000
     16       1.5627      2.00000
     17       1.6233      2.00000
     18       1.6508      2.00000
     19       1.7471      2.00000
     20       1.8245      2.00000
     21       1.8972      2.00000
     22       1.9652      2.00000
     23       2.0987      2.00000
     24       2.1299      2.00000
     25       2.1775      2.00000
     26       2.2434      2.00000
     27       2.2903      2.00000
     28       2.3314      2.00000
     29       2.4334      2.00000
     30       2.4908      2.00000
     31       2.5395      2.00000
     32       2.5455      2.00000
     33       2.5962      2.00000
     34       2.7458      2.00000
     35       2.7745      2.00000
     36       2.7990      2.00000
     37       2.8591      2.00000
     38       2.9273      2.00000
     39       2.9717      2.00000
     40       3.0422      2.00000
     41       3.0902      2.00000
     42       3.1746      2.00000
     43       3.2973      2.00000
     44       3.3470      2.00000
     45       3.4327      2.00000
     46       3.5101      2.00000
     47       3.7502      2.00000
     48       4.0471      2.00000
     49       4.5859      2.00000
     50       5.0195      2.00000
     51       5.3391      2.00000
     52       5.5898      2.00000
     53       5.9393      2.00000
     54       6.2382      2.00000
     55       6.3764      2.00000
     56       6.6943      2.00000
     57       7.2495      0.00000
     58       8.4458      0.00000
     59       8.8759      0.00000
     60       9.7207      0.00000
     61      10.2296      0.00000
     62      11.2819      0.00000
     63      11.4473      0.00000
     64      11.7436      0.00000
     65      11.9777      0.00000
     66      12.2679      0.00000
     67      13.1333      0.00000
     68      13.3398      0.00000

 k-point    50 :       0.0000    0.0000    0.2368
  band No.  band energies     occupation 
      1      -6.6225      2.00000
      2      -6.2684      2.00000
      3      -6.0288      2.00000
      4      -5.9508      2.00000
      5       0.4623      2.00000
      6       0.5316      2.00000
      7       0.6314      2.00000
      8       0.7417      2.00000
      9       0.8452      2.00000
     10       0.9010      2.00000
     11       1.0689      2.00000
     12       1.2066      2.00000
     13       1.3286      2.00000
     14       1.4376      2.00000
     15       1.4842      2.00000
     16       1.5658      2.00000
     17       1.6253      2.00000
     18       1.6512      2.00000
     19       1.7469      2.00000
     20       1.8307      2.00000
     21       1.8878      2.00000
     22       1.9592      2.00000
     23       2.0864      2.00000
     24       2.1261      2.00000
     25       2.1724      2.00000
     26       2.2307      2.00000
     27       2.2929      2.00000
     28       2.3276      2.00000
     29       2.4261      2.00000
     30       2.5014      2.00000
     31       2.5416      2.00000
     32       2.5584      2.00000
     33       2.6062      2.00000
     34       2.7309      2.00000
     35       2.7569      2.00000
     36       2.7978      2.00000
     37       2.8631      2.00000
     38       2.9197      2.00000
     39       2.9735      2.00000
     40       3.0405      2.00000
     41       3.0941      2.00000
     42       3.1939      2.00000
     43       3.2954      2.00000
     44       3.3437      2.00000
     45       3.4186      2.00000
     46       3.5289      2.00000
     47       3.7388      2.00000
     48       4.0898      2.00000
     49       4.5487      2.00000
     50       5.0442      2.00000
     51       5.3051      2.00000
     52       5.6004      2.00000
     53       5.8929      2.00000
     54       6.2313      2.00000
     55       6.3659      2.00000
     56       6.6819      2.00000
     57       7.3185      0.00000
     58       8.5425      0.00000
     59       8.8053      0.00000
     60       9.7478      0.00000
     61      10.2756      0.00000
     62      11.2939      0.00000
     63      11.4347      0.00000
     64      11.7288      0.00000
     65      11.9628      0.00000
     66      12.2341      0.00000
     67      13.0495      0.00000
     68      13.2383      0.00000

 k-point    51 :       0.0000    0.0000    0.2632
  band No.  band energies     occupation 
      1      -6.6106      2.00000
      2      -6.2842      2.00000
      3      -6.0257      2.00000
      4      -5.9517      2.00000
      5       0.4573      2.00000
      6       0.5241      2.00000
      7       0.6441      2.00000
      8       0.7481      2.00000
      9       0.8556      2.00000
     10       0.8896      2.00000
     11       1.0602      2.00000
     12       1.2053      2.00000
     13       1.3454      2.00000
     14       1.4515      2.00000
     15       1.4880      2.00000
     16       1.5685      2.00000
     17       1.6277      2.00000
     18       1.6527      2.00000
     19       1.7461      2.00000
     20       1.8347      2.00000
     21       1.8835      2.00000
     22       1.9548      2.00000
     23       2.0724      2.00000
     24       2.1222      2.00000
     25       2.1680      2.00000
     26       2.2137      2.00000
     27       2.2941      2.00000
     28       2.3277      2.00000
     29       2.4205      2.00000
     30       2.5081      2.00000
     31       2.5416      2.00000
     32       2.5727      2.00000
     33       2.6191      2.00000
     34       2.7147      2.00000
     35       2.7388      2.00000
     36       2.7954      2.00000
     37       2.8698      2.00000
     38       2.9130      2.00000
     39       2.9771      2.00000
     40       3.0390      2.00000
     41       3.0978      2.00000
     42       3.2131      2.00000
     43       3.2932      2.00000
     44       3.3402      2.00000
     45       3.4061      2.00000
     46       3.5480      2.00000
     47       3.7273      2.00000
     48       4.1356      2.00000
     49       4.5059      2.00000
     50       5.0690      2.00000
     51       5.2662      2.00000
     52       5.5962      2.00000
     53       5.8697      2.00000
     54       6.2267      2.00000
     55       6.3556      2.00000
     56       6.6677      2.00000
     57       7.3874      0.00000
     58       8.6423      0.00000
     59       8.7328      0.00000
     60       9.7695      0.00000
     61      10.3264      0.00000
     62      11.2949      0.00000
     63      11.4279      0.00000
     64      11.7105      0.00000
     65      11.9533      0.00000
     66      12.2003      0.00000
     67      12.9046      0.00000
     68      13.1169      0.00000

 k-point    52 :       0.0000    0.0000    0.2895
  band No.  band energies     occupation 
      1      -6.5976      2.00000
      2      -6.3009      2.00000
      3      -6.0224      2.00000
      4      -5.9529      2.00000
      5       0.4524      2.00000
      6       0.5163      2.00000
      7       0.6575      2.00000
      8       0.7538      2.00000
      9       0.8622      2.00000
     10       0.8870      2.00000
     11       1.0498      2.00000
     12       1.2039      2.00000
     13       1.3591      2.00000
     14       1.4552      2.00000
     15       1.4991      2.00000
     16       1.5708      2.00000
     17       1.6305      2.00000
     18       1.6555      2.00000
     19       1.7450      2.00000
     20       1.8368      2.00000
     21       1.8839      2.00000
     22       1.9518      2.00000
     23       2.0578      2.00000
     24       2.1179      2.00000
     25       2.1646      2.00000
     26       2.1945      2.00000
     27       2.2932      2.00000
     28       2.3301      2.00000
     29       2.4179      2.00000
     30       2.5102      2.00000
     31       2.5429      2.00000
     32       2.5850      2.00000
     33       2.6322      2.00000
     34       2.6976      2.00000
     35       2.7248      2.00000
     36       2.7924      2.00000
     37       2.8759      2.00000
     38       2.9077      2.00000
     39       2.9822      2.00000
     40       3.0378      2.00000
     41       3.1013      2.00000
     42       3.2294      2.00000
     43       3.2911      2.00000
     44       3.3363      2.00000
     45       3.3989      2.00000
     46       3.5670      2.00000
     47       3.7157      2.00000
     48       4.1814      2.00000
     49       4.4602      2.00000
     50       5.0932      2.00000
     51       5.2256      2.00000
     52       5.5699      2.00000
     53       5.8747      2.00000
     54       6.2238      2.00000
     55       6.3464      2.00000
     56       6.6517      2.00000
     57       7.4562      0.00000
     58       8.6579      0.00000
     59       8.7448      0.00000
     60       9.7847      0.00000
     61      10.3817      0.00000
     62      11.2836      0.00000
     63      11.4266      0.00000
     64      11.6878      0.00000
     65      11.9509      0.00000
     66      12.1686      0.00000
     67      12.7884      0.00000
     68      13.0144      0.00000

 k-point    53 :       0.0000    0.0000    0.3158
  band No.  band energies     occupation 
      1      -6.5838      2.00000
      2      -6.3183      2.00000
      3      -6.0188      2.00000
      4      -5.9546      2.00000
      5       0.4477      2.00000
      6       0.5084      2.00000
      7       0.6712      2.00000
      8       0.7592      2.00000
      9       0.8591      2.00000
     10       0.8985      2.00000
     11       1.0381      2.00000
     12       1.2020      2.00000
     13       1.3689      2.00000
     14       1.4534      2.00000
     15       1.5127      2.00000
     16       1.5732      2.00000
     17       1.6334      2.00000
     18       1.6598      2.00000
     19       1.7436      2.00000
     20       1.8391      2.00000
     21       1.8867      2.00000
     22       1.9501      2.00000
     23       2.0433      2.00000
     24       2.1131      2.00000
     25       2.1610      2.00000
     26       2.1763      2.00000
     27       2.2902      2.00000
     28       2.3334      2.00000
     29       2.4188      2.00000
     30       2.5074      2.00000
     31       2.5469      2.00000
     32       2.5920      2.00000
     33       2.6422      2.00000
     34       2.6846      2.00000
     35       2.7155      2.00000
     36       2.7894      2.00000
     37       2.8797      2.00000
     38       2.9047      2.00000
     39       2.9881      2.00000
     40       3.0372      2.00000
     41       3.1046      2.00000
     42       3.2382      2.00000
     43       3.2903      2.00000
     44       3.3322      2.00000
     45       3.4011      2.00000
     46       3.5860      2.00000
     47       3.7044      2.00000
     48       4.2189      2.00000
     49       4.4201      2.00000
     50       5.1152      2.00000
     51       5.1848      2.00000
     52       5.5291      2.00000
     53       5.8990      2.00000
     54       6.2217      2.00000
     55       6.3394      2.00000
     56       6.6337      2.00000
     57       7.5253      0.00000
     58       8.5824      0.00000
     59       8.8474      0.00000
     60       9.7918      0.00000
     61      10.4414      0.00000
     62      11.2644      0.00000
     63      11.4239      0.00000
     64      11.6624      0.00000
     65      11.9554      0.00000
     66      12.1422      0.00000
     67      12.6804      0.00000
     68      12.9219      0.00000

 k-point    54 :       0.0000    0.0000    0.3421
  band No.  band energies     occupation 
      1      -6.5691      2.00000
      2      -6.3361      2.00000
      3      -6.0150      2.00000
      4      -5.9566      2.00000
      5       0.4437      2.00000
      6       0.5007      2.00000
      7       0.6841      2.00000
      8       0.7650      2.00000
      9       0.8535      2.00000
     10       0.9158      2.00000
     11       1.0260      2.00000
     12       1.1993      2.00000
     13       1.3742      2.00000
     14       1.4505      2.00000
     15       1.5246      2.00000
     16       1.5762      2.00000
     17       1.6365      2.00000
     18       1.6649      2.00000
     19       1.7427      2.00000
     20       1.8427      2.00000
     21       1.8897      2.00000
     22       1.9492      2.00000
     23       2.0293      2.00000
     24       2.1073      2.00000
     25       2.1497      2.00000
     26       2.1688      2.00000
     27       2.2855      2.00000
     28       2.3372      2.00000
     29       2.4225      2.00000
     30       2.5007      2.00000
     31       2.5522      2.00000
     32       2.5922      2.00000
     33       2.6452      2.00000
     34       2.6816      2.00000
     35       2.7104      2.00000
     36       2.7869      2.00000
     37       2.8805      2.00000
     38       2.9049      2.00000
     39       2.9942      2.00000
     40       3.0377      2.00000
     41       3.1077      2.00000
     42       3.2366      2.00000
     43       3.2914      2.00000
     44       3.3280      2.00000
     45       3.4149      2.00000
     46       3.6050      2.00000
     47       3.6941      2.00000
     48       4.2263      2.00000
     49       4.4079      2.00000
     50       5.1208      2.00000
     51       5.1565      2.00000
     52       5.4847      2.00000
     53       5.9313      2.00000
     54       6.2198      2.00000
     55       6.3361      2.00000
     56       6.6138      2.00000
     57       7.5946      0.00000
     58       8.5057      0.00000
     59       8.9497      0.00000
     60       9.7896      0.00000
     61      10.5050      0.00000
     62      11.2423      0.00000
     63      11.4118      0.00000
     64      11.6380      0.00000
     65      11.9638      0.00000
     66      12.1259      0.00000
     67      12.5822      0.00000
     68      12.8320      0.00000

 k-point    55 :       0.0000    0.0000    0.3684
  band No.  band energies     occupation 
      1      -6.5539      2.00000
      2      -6.3542      2.00000
      3      -6.0112      2.00000
      4      -5.9589      2.00000
      5       0.4404      2.00000
      6       0.4933      2.00000
      7       0.6951      2.00000
      8       0.7724      2.00000
      9       0.8485      2.00000
     10       0.9326      2.00000
     11       1.0155      2.00000
     12       1.1953      2.00000
     13       1.3750      2.00000
     14       1.4482      2.00000
     15       1.5336      2.00000
     16       1.5802      2.00000
     17       1.6395      2.00000
     18       1.6703      2.00000
     19       1.7427      2.00000
     20       1.8481      2.00000
     21       1.8918      2.00000
     22       1.9488      2.00000
     23       2.0164      2.00000
     24       2.0986      2.00000
     25       2.1349      2.00000
     26       2.1706      2.00000
     27       2.2797      2.00000
     28       2.3418      2.00000
     29       2.4278      2.00000
     30       2.4913      2.00000
     31       2.5550      2.00000
     32       2.5897      2.00000
     33       2.6430      2.00000
     34       2.6846      2.00000
     35       2.7101      2.00000
     36       2.7851      2.00000
     37       2.8793      2.00000
     38       2.9075      2.00000
     39       2.9995      2.00000
     40       3.0396      2.00000
     41       3.1108      2.00000
     42       3.2271      2.00000
     43       3.2932      2.00000
     44       3.3239      2.00000
     45       3.4388      2.00000
     46       3.6231      2.00000
     47       3.6870      2.00000
     48       4.1905      2.00000
     49       4.4377      2.00000
     50       5.0806      2.00000
     51       5.1683      2.00000
     52       5.4436      2.00000
     53       5.9644      2.00000
     54       6.2171      2.00000
     55       6.3381      2.00000
     56       6.5920      2.00000
     57       7.6645      0.00000
     58       8.4285      0.00000
     59       9.0503      0.00000
     60       9.7772      0.00000
     61      10.5719      0.00000
     62      11.2202      0.00000
     63      11.3857      0.00000
     64      11.6175      0.00000
     65      11.9724      0.00000
     66      12.1247      0.00000
     67      12.4960      0.00000
     68      12.7449      0.00000

 k-point    56 :       0.0000    0.0000    0.3947
  band No.  band energies     occupation 
      1      -6.5382      2.00000
      2      -6.3723      2.00000
      3      -6.0074      2.00000
      4      -5.9613      2.00000
      5       0.4380      2.00000
      6       0.4865      2.00000
      7       0.7033      2.00000
      8       0.7825      2.00000
      9       0.8445      2.00000
     10       0.9432      2.00000
     11       1.0114      2.00000
     12       1.1895      2.00000
     13       1.3723      2.00000
     14       1.4468      2.00000
     15       1.5399      2.00000
     16       1.5850      2.00000
     17       1.6423      2.00000
     18       1.6755      2.00000
     19       1.7438      2.00000
     20       1.8547      2.00000
     21       1.8928      2.00000
     22       1.9482      2.00000
     23       2.0050      2.00000
     24       2.0861      2.00000
     25       2.1246      2.00000
     26       2.1756      2.00000
     27       2.2734      2.00000
     28       2.3474      2.00000
     29       2.4330      2.00000
     30       2.4803      2.00000
     31       2.5512      2.00000
     32       2.5921      2.00000
     33       2.6395      2.00000
     34       2.6858      2.00000
     35       2.7140      2.00000
     36       2.7839      2.00000
     37       2.8777      2.00000
     38       2.9111      2.00000
     39       3.0034      2.00000
     40       3.0428      2.00000
     41       3.1140      2.00000
     42       3.2137      2.00000
     43       3.2948      2.00000
     44       3.3201      2.00000
     45       3.4684      2.00000
     46       3.6344      2.00000
     47       3.6901      2.00000
     48       4.1316      2.00000
     49       4.4905      2.00000
     50       5.0271      2.00000
     51       5.1865      2.00000
     52       5.4088      2.00000
     53       5.9945      2.00000
     54       6.2132      2.00000
     55       6.3464      2.00000
     56       6.5687      2.00000
     57       7.7350      0.00000
     58       8.3512      0.00000
     59       9.1477      0.00000
     60       9.7540      0.00000
     61      10.6412      0.00000
     62      11.1980      0.00000
     63      11.3480      0.00000
     64      11.6007      0.00000
     65      11.9799      0.00000
     66      12.1403      0.00000
     67      12.4226      0.00000
     68      12.6609      0.00000

 k-point    57 :       0.0000    0.0000    0.4211
  band No.  band energies     occupation 
      1      -6.5227      2.00000
      2      -6.3898      2.00000
      3      -6.0040      2.00000
      4      -5.9638      2.00000
      5       0.4364      2.00000
      6       0.4806      2.00000
      7       0.7085      2.00000
      8       0.7950      2.00000
      9       0.8415      2.00000
     10       0.9422      2.00000
     11       1.0182      2.00000
     12       1.1819      2.00000
     13       1.3681      2.00000
     14       1.4459      2.00000
     15       1.5442      2.00000
     16       1.5897      2.00000
     17       1.6447      2.00000
     18       1.6799      2.00000
     19       1.7456      2.00000
     20       1.8619      2.00000
     21       1.8931      2.00000
     22       1.9470      2.00000
     23       1.9959      2.00000
     24       2.0718      2.00000
     25       2.1188      2.00000
     26       2.1820      2.00000
     27       2.2675      2.00000
     28       2.3541      2.00000
     29       2.4356      2.00000
     30       2.4700      2.00000
     31       2.5434      2.00000
     32       2.5993      2.00000
     33       2.6361      2.00000
     34       2.6840      2.00000
     35       2.7194      2.00000
     36       2.7835      2.00000
     37       2.8764      2.00000
     38       2.9147      2.00000
     39       3.0060      2.00000
     40       3.0467      2.00000
     41       3.1176      2.00000
     42       3.1995      2.00000
     43       3.2964      2.00000
     44       3.3166      2.00000
     45       3.4994      2.00000
     46       3.6325      2.00000
     47       3.7118      2.00000
     48       4.0650      2.00000
     49       4.5521      2.00000
     50       4.9680      2.00000
     51       5.2032      2.00000
     52       5.3814      2.00000
     53       6.0192      2.00000
     54       6.2084      2.00000
     55       6.3607      2.00000
     56       6.5442      2.00000
     57       7.8059      0.00000
     58       8.2744      0.00000
     59       9.2401      0.00000
     60       9.7207      0.00000
     61      10.7109      0.00000
     62      11.1729      0.00000
     63      11.3072      0.00000
     64      11.5859      0.00000
     65      11.9881      0.00000
     66      12.1688      0.00000
     67      12.3643      0.00000
     68      12.5807      0.00000

 k-point    58 :       0.0000    0.0000    0.4474
  band No.  band energies     occupation 
      1      -6.5080      2.00000
      2      -6.4059      2.00000
      3      -6.0010      2.00000
      4      -5.9659      2.00000
      5       0.4355      2.00000
      6       0.4760      2.00000
      7       0.7113      2.00000
      8       0.8082      2.00000
      9       0.8392      2.00000
     10       0.9336      2.00000
     11       1.0314      2.00000
     12       1.1733      2.00000
     13       1.3638      2.00000
     14       1.4454      2.00000
     15       1.5470      2.00000
     16       1.5935      2.00000
     17       1.6466      2.00000
     18       1.6831      2.00000
     19       1.7478      2.00000
     20       1.8684      2.00000
     21       1.8931      2.00000
     22       1.9451      2.00000
     23       1.9894      2.00000
     24       2.0591      2.00000
     25       2.1155      2.00000
     26       2.1883      2.00000
     27       2.2625      2.00000
     28       2.3616      2.00000
     29       2.4323      2.00000
     30       2.4647      2.00000
     31       2.5362      2.00000
     32       2.6071      2.00000
     33       2.6337      2.00000
     34       2.6804      2.00000
     35       2.7240      2.00000
     36       2.7835      2.00000
     37       2.8757      2.00000
     38       2.9178      2.00000
     39       3.0076      2.00000
     40       3.0504      2.00000
     41       3.1214      2.00000
     42       3.1866      2.00000
     43       3.2978      2.00000
     44       3.3136      2.00000
     45       3.5278      2.00000
     46       3.6228      2.00000
     47       3.7479      2.00000
     48       3.9975      2.00000
     49       4.6168      2.00000
     50       4.9054      2.00000
     51       5.2169      2.00000
     52       5.3614      2.00000
     53       6.0373      2.00000
     54       6.2036      2.00000
     55       6.3791      2.00000
     56       6.5199      2.00000
     57       7.8766      0.00000
     58       8.1993      0.00000
     59       9.3239      0.00000
     60       9.6795      0.00000
     61      10.7777      0.00000
     62      11.1402      0.00000
     63      11.2747      0.00000
     64      11.5732      0.00000
     65      11.9979      0.00000
     66      12.2008      0.00000
     67      12.3271      0.00000
     68      12.5056      0.00000

 k-point    59 :       0.0000    0.0000    0.4737
  band No.  band energies     occupation 
      1      -6.4961      2.00000
      2      -6.4186      2.00000
      3      -5.9990      2.00000
      4      -5.9675      2.00000
      5       0.4351      2.00000
      6       0.4730      2.00000
      7       0.7127      2.00000
      8       0.8195      2.00000
      9       0.8372      2.00000
     10       0.9246      2.00000
     11       1.0433      2.00000
     12       1.1658      2.00000
     13       1.3609      2.00000
     14       1.4451      2.00000
     15       1.5486      2.00000
     16       1.5960      2.00000
     17       1.6479      2.00000
     18       1.6851      2.00000
     19       1.7495      2.00000
     20       1.8729      2.00000
     21       1.8935      2.00000
     22       1.9431      2.00000
     23       1.9856      2.00000
     24       2.0505      2.00000
     25       2.1138      2.00000
     26       2.1930      2.00000
     27       2.2591      2.00000
     28       2.3684      2.00000
     29       2.4250      2.00000
     30       2.4641      2.00000
     31       2.5313      2.00000
     32       2.6126      2.00000
     33       2.6329      2.00000
     34       2.6768      2.00000
     35       2.7269      2.00000
     36       2.7836      2.00000
     37       2.8755      2.00000
     38       2.9198      2.00000
     39       3.0084      2.00000
     40       3.0530      2.00000
     41       3.1250      2.00000
     42       3.1770      2.00000
     43       3.2991      2.00000
     44       3.3113      2.00000
     45       3.5503      2.00000
     46       3.6111      2.00000
     47       3.7918      2.00000
     48       3.9345      2.00000
     49       4.6800      2.00000
     50       4.8436      2.00000
     51       5.2263      2.00000
     52       5.3488      2.00000
     53       6.0485      2.00000
     54       6.2000      2.00000
     55       6.3972      2.00000
     56       6.4989      2.00000
     57       7.9435      0.00000
     58       8.1295      0.00000
     59       9.3913      0.00000
     60       9.6379      0.00000
     61      10.8330      0.00000
     62      11.1034      0.00000
     63      11.2568      0.00000
     64      11.5641      0.00000
     65      12.0070      0.00000
     66      12.2192      0.00000
     67      12.3257      0.00000
     68      12.4384      0.00000

 k-point    60 :       0.0000    0.0000    0.5000
  band No.  band energies     occupation 
      1      -6.4911      2.00000
      2      -6.4238      2.00000
      3      -5.9983      2.00000
      4      -5.9681      2.00000
      5       0.4350      2.00000
      6       0.4719      2.00000
      7       0.7131      2.00000
      8       0.8246      2.00000
      9       0.8360      2.00000
     10       0.9208      2.00000
     11       1.0481      2.00000
     12       1.1627      2.00000
     13       1.3598      2.00000
     14       1.4450      2.00000
     15       1.5491      2.00000
     16       1.5968      2.00000
     17       1.6483      2.00000
     18       1.6858      2.00000
     19       1.7501      2.00000
     20       1.8744      2.00000
     21       1.8939      2.00000
     22       1.9421      2.00000
     23       1.9844      2.00000
     24       2.0474      2.00000
     25       2.1133      2.00000
     26       2.1948      2.00000
     27       2.2579      2.00000
     28       2.3716      2.00000
     29       2.4212      2.00000
     30       2.4645      2.00000
     31       2.5296      2.00000
     32       2.6144      2.00000
     33       2.6331      2.00000
     34       2.6751      2.00000
     35       2.7278      2.00000
     36       2.7837      2.00000
     37       2.8754      2.00000
     38       2.9205      2.00000
     39       3.0087      2.00000
     40       3.0539      2.00000
     41       3.1266      2.00000
     42       3.1732      2.00000
     43       3.2996      2.00000
     44       3.3104      2.00000
     45       3.5604      2.00000
     46       3.6047      2.00000
     47       3.8224      2.00000
     48       3.8975      2.00000
     49       4.7187      2.00000
     50       4.8052      2.00000
     51       5.2297      2.00000
     52       5.3444      2.00000
     53       6.0522      2.00000
     54       6.1987      2.00000
     55       6.4059      2.00000
     56       6.4895      2.00000
     57       7.9828      0.00000
     58       8.0893      0.00000
     59       9.4210      0.00000
     60       9.6168      0.00000
     61      10.8570      0.00000
     62      11.0849      0.00000
     63      11.2514      0.00000
     64      11.5609      0.00000
     65      12.0109      0.00000
     66      12.2211      0.00000
     67      12.3477      0.00000
     68      12.3971      0.00000

 k-point    61 :      -0.5000   -0.5000    0.5000
  band No.  band energies     occupation 
      1      -6.1644      2.00000
      2      -6.0448      2.00000
      3      -6.0349      2.00000
      4      -5.9939      2.00000
      5       0.5360      2.00000
      6       0.5830      2.00000
      7       0.6336      2.00000
      8       0.6852      2.00000
      9       1.0910      2.00000
     10       1.1173      2.00000
     11       1.1557      2.00000
     12       1.2040      2.00000
     13       1.4275      2.00000
     14       1.4735      2.00000
     15       1.5047      2.00000
     16       1.5797      2.00000
     17       1.7373      2.00000
     18       1.7934      2.00000
     19       1.8090      2.00000
     20       1.8706      2.00000
     21       1.9249      2.00000
     22       1.9887      2.00000
     23       2.0480      2.00000
     24       2.1214      2.00000
     25       2.1534      2.00000
     26       2.1943      2.00000
     27       2.3518      2.00000
     28       2.4101      2.00000
     29       2.4358      2.00000
     30       2.4451      2.00000
     31       2.5099      2.00000
     32       2.5334      2.00000
     33       2.6247      2.00000
     34       2.6870      2.00000
     35       2.7088      2.00000
     36       2.7186      2.00000
     37       2.8290      2.00000
     38       2.8508      2.00000
     39       2.8859      2.00000
     40       2.9111      2.00000
     41       2.9787      2.00000
     42       3.0469      2.00000
     43       3.0683      2.00000
     44       3.1281      2.00000
     45       3.3857      2.00000
     46       3.4433      2.00000
     47       3.6485      2.00000
     48       3.6906      2.00000
     49       4.1875      2.00000
     50       4.3188      2.00000
     51       5.0467      2.00000
     52       5.2946      2.00000
     53       5.6927      2.00000
     54       5.7969      2.00000
     55       5.8886      2.00000
     56       6.0810      2.00000
     57       9.2579      0.00000
     58       9.3708      0.00000
     59       9.4711      0.00000
     60       9.5413      0.00000
     61      10.4168      0.00000
     62      10.6409      0.00000
     63      10.7274      0.00000
     64      10.9834      0.00000
     65      11.5305      0.00000
     66      11.6727      0.00000
     67      11.9387      0.00000
     68      12.0597      0.00000

 k-point    62 :      -0.4737   -0.4737    0.4737
  band No.  band energies     occupation 
      1      -6.1670      2.00000
      2      -6.0490      2.00000
      3      -6.0346      2.00000
      4      -5.9922      2.00000
      5       0.5127      2.00000
      6       0.5894      2.00000
      7       0.6435      2.00000
      8       0.6990      2.00000
      9       1.0845      2.00000
     10       1.1069      2.00000
     11       1.1673      2.00000
     12       1.2025      2.00000
     13       1.4255      2.00000
     14       1.4717      2.00000
     15       1.5030      2.00000
     16       1.5875      2.00000
     17       1.7379      2.00000
     18       1.7859      2.00000
     19       1.8147      2.00000
     20       1.8690      2.00000
     21       1.9258      2.00000
     22       1.9846      2.00000
     23       2.0417      2.00000
     24       2.1266      2.00000
     25       2.1507      2.00000
     26       2.1918      2.00000
     27       2.3509      2.00000
     28       2.4105      2.00000
     29       2.4361      2.00000
     30       2.4508      2.00000
     31       2.5114      2.00000
     32       2.5319      2.00000
     33       2.6227      2.00000
     34       2.6885      2.00000
     35       2.7106      2.00000
     36       2.7174      2.00000
     37       2.8260      2.00000
     38       2.8431      2.00000
     39       2.8707      2.00000
     40       2.9257      2.00000
     41       2.9877      2.00000
     42       3.0335      2.00000
     43       3.0802      2.00000
     44       3.1329      2.00000
     45       3.3851      2.00000
     46       3.4448      2.00000
     47       3.6604      2.00000
     48       3.6930      2.00000
     49       4.1770      2.00000
     50       4.3286      2.00000
     51       5.0693      2.00000
     52       5.2880      2.00000
     53       5.6196      2.00000
     54       5.8289      2.00000
     55       5.9211      2.00000
     56       6.0839      2.00000
     57       9.2478      0.00000
     58       9.3815      0.00000
     59       9.4445      0.00000
     60       9.5789      0.00000
     61      10.3618      0.00000
     62      10.6831      0.00000
     63      10.7427      0.00000
     64      10.9831      0.00000
     65      11.4090      0.00000
     66      11.6985      0.00000
     67      11.9631      0.00000
     68      12.1303      0.00000

 k-point    63 :      -0.4474   -0.4474    0.4474
  band No.  band energies     occupation 
      1      -6.1751      2.00000
      2      -6.0596      2.00000
      3      -6.0335      2.00000
      4      -5.9885      2.00000
      5       0.4773      2.00000
      6       0.5825      2.00000
      7       0.6760      2.00000
      8       0.7276      2.00000
      9       1.0645      2.00000
     10       1.0932      2.00000
     11       1.1874      2.00000
     12       1.1984      2.00000
     13       1.4160      2.00000
     14       1.4676      2.00000
     15       1.5043      2.00000
     16       1.6050      2.00000
     17       1.7376      2.00000
     18       1.7739      2.00000
     19       1.8215      2.00000
     20       1.8644      2.00000
     21       1.9289      2.00000
     22       1.9744      2.00000
     23       2.0252      2.00000
     24       2.1316      2.00000
     25       2.1485      2.00000
     26       2.1895      2.00000
     27       2.3461      2.00000
     28       2.4121      2.00000
     29       2.4361      2.00000
     30       2.4657      2.00000
     31       2.5111      2.00000
     32       2.5317      2.00000
     33       2.6232      2.00000
     34       2.6794      2.00000
     35       2.7083      2.00000
     36       2.7322      2.00000
     37       2.8129      2.00000
     38       2.8290      2.00000
     39       2.8528      2.00000
     40       2.9459      2.00000
     41       3.0064      2.00000
     42       3.0163      2.00000
     43       3.0975      2.00000
     44       3.1445      2.00000
     45       3.3812      2.00000
     46       3.4497      2.00000
     47       3.6862      2.00000
     48       3.7075      2.00000
     49       4.1509      2.00000
     50       4.3577      2.00000
     51       5.1299      2.00000
     52       5.2572      2.00000
     53       5.5344      2.00000
     54       5.8150      2.00000
     55       5.9961      2.00000
     56       6.1035      2.00000
     57       9.2246      0.00000
     58       9.3795      0.00000
     59       9.4425      0.00000
     60       9.6404      0.00000
     61      10.2670      0.00000
     62      10.6838      0.00000
     63      10.8193      0.00000
     64      10.9740      0.00000
     65      11.2570      0.00000
     66      11.6690      0.00000
     67      12.0427      0.00000
     68      12.2631      0.00000

 k-point    64 :      -0.4211   -0.4211    0.4211
  band No.  band energies     occupation 
      1      -6.1894      2.00000
      2      -6.0732      2.00000
      3      -6.0322      2.00000
      4      -5.9848      2.00000
      5       0.4476      2.00000
      6       0.5729      2.00000
      7       0.7097      2.00000
      8       0.7590      2.00000
      9       1.0349      2.00000
     10       1.0856      2.00000
     11       1.1861      2.00000
     12       1.2140      2.00000
     13       1.4009      2.00000
     14       1.4551      2.00000
     15       1.5182      2.00000
     16       1.6219      2.00000
     17       1.7327      2.00000
     18       1.7608      2.00000
     19       1.8257      2.00000
     20       1.8587      2.00000
     21       1.9329      2.00000
     22       1.9617      2.00000
     23       2.0033      2.00000
     24       2.1236      2.00000
     25       2.1504      2.00000
     26       2.2007      2.00000
     27       2.3364      2.00000
     28       2.4136      2.00000
     29       2.4357      2.00000
     30       2.4803      2.00000
     31       2.5049      2.00000
     32       2.5403      2.00000
     33       2.6309      2.00000
     34       2.6578      2.00000
     35       2.7105      2.00000
     36       2.7502      2.00000
     37       2.7969      2.00000
     38       2.8185      2.00000
     39       2.8454      2.00000
     40       2.9622      2.00000
     41       2.9996      2.00000
     42       3.0272      2.00000
     43       3.1129      2.00000
     44       3.1631      2.00000
     45       3.3770      2.00000
     46       3.4514      2.00000
     47       3.7083      2.00000
     48       3.7464      2.00000
     49       4.1214      2.00000
     50       4.4051      2.00000
     51       5.1760      2.00000
     52       5.2213      2.00000
     53       5.5012      2.00000
     54       5.7785      2.00000
     55       6.0193      2.00000
     56       6.1689      2.00000
     57       9.1904      0.00000
     58       9.3655      0.00000
     59       9.4822      0.00000
     60       9.7045      0.00000
     61      10.1721      0.00000
     62      10.6425      0.00000
     63      10.7822      0.00000
     64      11.0031      0.00000
     65      11.2429      0.00000
     66      11.6295      0.00000
     67      12.0953      0.00000
     68      12.4220      0.00000

 k-point    65 :      -0.3947   -0.3947    0.3947
  band No.  band energies     occupation 
      1      -6.2104      2.00000
      2      -6.0868      2.00000
      3      -6.0317      2.00000
      4      -5.9814      2.00000
      5       0.4276      2.00000
      6       0.5670      2.00000
      7       0.7285      2.00000
      8       0.7936      2.00000
      9       1.0024      2.00000
     10       1.0800      2.00000
     11       1.1771      2.00000
     12       1.2374      2.00000
     13       1.3848      2.00000
     14       1.4392      2.00000
     15       1.5369      2.00000
     16       1.6291      2.00000
     17       1.7239      2.00000
     18       1.7445      2.00000
     19       1.8282      2.00000
     20       1.8548      2.00000
     21       1.9290      2.00000
     22       1.9543      2.00000
     23       1.9825      2.00000
     24       2.1144      2.00000
     25       2.1478      2.00000
     26       2.2266      2.00000
     27       2.3249      2.00000
     28       2.4107      2.00000
     29       2.4316      2.00000
     30       2.4855      2.00000
     31       2.5051      2.00000
     32       2.5513      2.00000
     33       2.6338      2.00000
     34       2.6438      2.00000
     35       2.7190      2.00000
     36       2.7533      2.00000
     37       2.7824      2.00000
     38       2.8361      2.00000
     39       2.8436      2.00000
     40       2.9722      2.00000
     41       2.9866      2.00000
     42       3.0414      2.00000
     43       3.1265      2.00000
     44       3.1878      2.00000
     45       3.3783      2.00000
     46       3.4449      2.00000
     47       3.7335      2.00000
     48       3.7929      2.00000
     49       4.1010      2.00000
     50       4.4688      2.00000
     51       5.0773      2.00000
     52       5.3102      2.00000
     53       5.5131      2.00000
     54       5.7370      2.00000
     55       6.0019      2.00000
     56       6.2492      2.00000
     57       9.1373      0.00000
     58       9.3804      0.00000
     59       9.5304      0.00000
     60       9.7659      0.00000
     61      10.0803      0.00000
     62      10.5140      0.00000
     63      10.7264      0.00000
     64      11.0530      0.00000
     65      11.3413      0.00000
     66      11.6198      0.00000
     67      12.0974      0.00000
     68      12.5981      0.00000

 k-point    66 :      -0.3684   -0.3684    0.3684
  band No.  band energies     occupation 
      1      -6.2383      2.00000
      2      -6.0988      2.00000
      3      -6.0328      2.00000
      4      -5.9782      2.00000
      5       0.4190      2.00000
      6       0.5657      2.00000
      7       0.7278      2.00000
      8       0.8302      2.00000
      9       0.9705      2.00000
     10       1.0688      2.00000
     11       1.1734      2.00000
     12       1.2597      2.00000
     13       1.3686      2.00000
     14       1.4265      2.00000
     15       1.5520      2.00000
     16       1.6177      2.00000
     17       1.7134      2.00000
     18       1.7284      2.00000
     19       1.8296      2.00000
     20       1.8510      2.00000
     21       1.9168      2.00000
     22       1.9534      2.00000
     23       1.9691      2.00000
     24       2.1089      2.00000
     25       2.1481      2.00000
     26       2.2545      2.00000
     27       2.3136      2.00000
     28       2.4032      2.00000
     29       2.4233      2.00000
     30       2.4873      2.00000
     31       2.5119      2.00000
     32       2.5537      2.00000
     33       2.6229      2.00000
     34       2.6541      2.00000
     35       2.7291      2.00000
     36       2.7536      2.00000
     37       2.7754      2.00000
     38       2.8390      2.00000
     39       2.8749      2.00000
     40       2.9733      2.00000
     41       2.9779      2.00000
     42       3.0506      2.00000
     43       3.1433      2.00000
     44       3.2108      2.00000
     45       3.3876      2.00000
     46       3.4389      2.00000
     47       3.7572      2.00000
     48       3.8345      2.00000
     49       4.1003      2.00000
     50       4.5466      2.00000
     51       4.9745      2.00000
     52       5.3973      2.00000
     53       5.5319      2.00000
     54       5.7147      2.00000
     55       5.9643      2.00000
     56       6.3189      2.00000
     57       9.0596      0.00000
     58       9.4312      0.00000
     59       9.5785      0.00000
     60       9.8063      0.00000
     61      10.0053      0.00000
     62      10.3575      0.00000
     63      10.7202      0.00000
     64      11.0999      0.00000
     65      11.4094      0.00000
     66      11.7007      0.00000
     67      12.0719      0.00000
     68      12.7503      0.00000

 k-point    67 :      -0.3421   -0.3421    0.3421
  band No.  band energies     occupation 
      1      -6.2724      2.00000
      2      -6.1087      2.00000
      3      -6.0356      2.00000
      4      -5.9747      2.00000
      5       0.4218      2.00000
      6       0.5688      2.00000
      7       0.7140      2.00000
      8       0.8589      2.00000
      9       0.9442      2.00000
     10       1.0490      2.00000
     11       1.1751      2.00000
     12       1.2797      2.00000
     13       1.3536      2.00000
     14       1.4190      2.00000
     15       1.5579      2.00000
     16       1.5870      2.00000
     17       1.6985      2.00000
     18       1.7205      2.00000
     19       1.8257      2.00000
     20       1.8453      2.00000
     21       1.9132      2.00000
     22       1.9419      2.00000
     23       1.9730      2.00000
     24       2.1093      2.00000
     25       2.1538      2.00000
     26       2.2643      2.00000
     27       2.3086      2.00000
     28       2.3907      2.00000
     29       2.4226      2.00000
     30       2.4886      2.00000
     31       2.5239      2.00000
     32       2.5481      2.00000
     33       2.6217      2.00000
     34       2.6629      2.00000
     35       2.7348      2.00000
     36       2.7633      2.00000
     37       2.7778      2.00000
     38       2.8378      2.00000
     39       2.9051      2.00000
     40       2.9632      2.00000
     41       2.9839      2.00000
     42       3.0584      2.00000
     43       3.1619      2.00000
     44       3.2245      2.00000
     45       3.4034      2.00000
     46       3.4502      2.00000
     47       3.7696      2.00000
     48       3.8654      2.00000
     49       4.1271      2.00000
     50       4.6367      2.00000
     51       4.8871      2.00000
     52       5.4583      2.00000
     53       5.5271      2.00000
     54       5.7421      2.00000
     55       5.9154      2.00000
     56       6.3737      2.00000
     57       8.9529      0.00000
     58       9.5105      0.00000
     59       9.6066      0.00000
     60       9.7888      0.00000
     61      10.0095      0.00000
     62      10.2308      0.00000
     63      10.7352      0.00000
     64      11.1561      0.00000
     65      11.4088      0.00000
     66      11.8666      0.00000
     67      12.0489      0.00000
     68      12.7723      0.00000

 k-point    68 :      -0.3158   -0.3158    0.3158
  band No.  band energies     occupation 
      1      -6.3112      2.00000
      2      -6.1169      2.00000
      3      -6.0398      2.00000
      4      -5.9711      2.00000
      5       0.4347      2.00000
      6       0.5750      2.00000
      7       0.6941      2.00000
      8       0.8629      2.00000
      9       0.9335      2.00000
     10       1.0265      2.00000
     11       1.1763      2.00000
     12       1.2969      2.00000
     13       1.3422      2.00000
     14       1.4138      2.00000
     15       1.5387      2.00000
     16       1.5583      2.00000
     17       1.6870      2.00000
     18       1.7157      2.00000
     19       1.8063      2.00000
     20       1.8456      2.00000
     21       1.9177      2.00000
     22       1.9272      2.00000
     23       1.9895      2.00000
     24       2.1170      2.00000
     25       2.1622      2.00000
     26       2.2441      2.00000
     27       2.3144      2.00000
     28       2.3680      2.00000
     29       2.4428      2.00000
     30       2.4909      2.00000
     31       2.5361      2.00000
     32       2.5489      2.00000
     33       2.6208      2.00000
     34       2.6699      2.00000
     35       2.7421      2.00000
     36       2.7672      2.00000
     37       2.7899      2.00000
     38       2.8426      2.00000
     39       2.9110      2.00000
     40       2.9616      2.00000
     41       2.9954      2.00000
     42       3.0694      2.00000
     43       3.1776      2.00000
     44       3.2275      2.00000
     45       3.4261      2.00000
     46       3.4868      2.00000
     47       3.7653      2.00000
     48       3.8875      2.00000
     49       4.1802      2.00000
     50       4.7344      2.00000
     51       4.8279      2.00000
     52       5.4297      2.00000
     53       5.5650      2.00000
     54       5.7639      2.00000
     55       5.9006      2.00000
     56       6.4147      2.00000
     57       8.8143      0.00000
     58       9.5165      0.00000
     59       9.6493      0.00000
     60       9.8035      0.00000
     61      10.0703      0.00000
     62      10.1397      0.00000
     63      10.7734      0.00000
     64      11.2242      0.00000
     65      11.3904      0.00000
     66      11.9833      0.00000
     67      12.1053      0.00000
     68      12.7872      0.00000

 k-point    69 :      -0.2895   -0.2895    0.2895
  band No.  band energies     occupation 
      1      -6.3532      2.00000
      2      -6.1243      2.00000
      3      -6.0446      2.00000
      4      -5.9674      2.00000
      5       0.4548      2.00000
      6       0.5816      2.00000
      7       0.6756      2.00000
      8       0.8423      2.00000
      9       0.9294      2.00000
     10       1.0111      2.00000
     11       1.1730      2.00000
     12       1.3110      2.00000
     13       1.3374      2.00000
     14       1.4031      2.00000
     15       1.4953      2.00000
     16       1.5451      2.00000
     17       1.6809      2.00000
     18       1.7124      2.00000
     19       1.7803      2.00000
     20       1.8445      2.00000
     21       1.9087      2.00000
     22       1.9303      2.00000
     23       2.0134      2.00000
     24       2.1314      2.00000
     25       2.1673      2.00000
     26       2.2168      2.00000
     27       2.3171      2.00000
     28       2.3450      2.00000
     29       2.4655      2.00000
     30       2.5016      2.00000
     31       2.5424      2.00000
     32       2.5625      2.00000
     33       2.6206      2.00000
     34       2.6721      2.00000
     35       2.7513      2.00000
     36       2.7689      2.00000
     37       2.7979      2.00000
     38       2.8594      2.00000
     39       2.9049      2.00000
     40       2.9638      2.00000
     41       3.0027      2.00000
     42       3.0840      2.00000
     43       3.1854      2.00000
     44       3.2285      2.00000
     45       3.4547      2.00000
     46       3.5426      2.00000
     47       3.7460      2.00000
     48       3.9078      2.00000
     49       4.2510      2.00000
     50       4.7800      2.00000
     51       4.8607      2.00000
     52       5.3658      2.00000
     53       5.6005      2.00000
     54       5.7169      2.00000
     55       5.9738      2.00000
     56       6.4446      2.00000
     57       8.6447      0.00000
     58       9.4149      0.00000
     59       9.7325      0.00000
     60       9.8782      0.00000
     61      10.0591      0.00000
     62      10.1834      0.00000
     63      10.8420      0.00000
     64      11.2986      0.00000
     65      11.3777      0.00000
     66      11.9902      0.00000
     67      12.2629      0.00000
     68      12.8260      0.00000

 k-point    70 :      -0.2632   -0.2632    0.2632
  band No.  band energies     occupation 
      1      -6.3969      2.00000
      2      -6.1314      2.00000
      3      -6.0489      2.00000
      4      -5.9640      2.00000
      5       0.4780      2.00000
      6       0.5824      2.00000
      7       0.6680      2.00000
      8       0.8157      2.00000
      9       0.9123      2.00000
     10       1.0063      2.00000
     11       1.1651      2.00000
     12       1.3161      2.00000
     13       1.3447      2.00000
     14       1.3780      2.00000
     15       1.4573      2.00000
     16       1.5384      2.00000
     17       1.6722      2.00000
     18       1.7096      2.00000
     19       1.7587      2.00000
     20       1.8351      2.00000
     21       1.9001      2.00000
     22       1.9378      2.00000
     23       2.0367      2.00000
     24       2.1438      2.00000
     25       2.1628      2.00000
     26       2.2058      2.00000
     27       2.3136      2.00000
     28       2.3308      2.00000
     29       2.4767      2.00000
     30       2.5184      2.00000
     31       2.5568      2.00000
     32       2.5730      2.00000
     33       2.6258      2.00000
     34       2.6664      2.00000
     35       2.7599      2.00000
     36       2.7730      2.00000
     37       2.8043      2.00000
     38       2.8810      2.00000
     39       2.9058      2.00000
     40       2.9646      2.00000
     41       3.0034      2.00000
     42       3.0966      2.00000
     43       3.1824      2.00000
     44       3.2349      2.00000
     45       3.4830      2.00000
     46       3.6056      2.00000
     47       3.7184      2.00000
     48       3.9344      2.00000
     49       4.3311      2.00000
     50       4.7909      2.00000
     51       4.9616      2.00000
     52       5.3043      2.00000
     53       5.5571      2.00000
     54       5.7129      2.00000
     55       6.0745      2.00000
     56       6.4664      2.00000
     57       8.4498      0.00000
     58       9.3108      0.00000
     59       9.7037      0.00000
     60       9.9624      0.00000
     61      10.1353      0.00000
     62      10.2839      0.00000
     63      10.9411      0.00000
     64      11.3420      0.00000
     65      11.4114      0.00000
     66      11.9838      0.00000
     67      12.3932      0.00000
     68      12.8865      0.00000

 k-point    71 :      -0.2368   -0.2368    0.2368
  band No.  band energies     occupation 
      1      -6.4408      2.00000
      2      -6.1389      2.00000
      3      -6.0520      2.00000
      4      -5.9609      2.00000
      5       0.4987      2.00000
      6       0.5736      2.00000
      7       0.6747      2.00000
      8       0.7939      2.00000
      9       0.8878      2.00000
     10       1.0019      2.00000
     11       1.1540      2.00000
     12       1.3074      2.00000
     13       1.3405      2.00000
     14       1.3681      2.00000
     15       1.4259      2.00000
     16       1.5434      2.00000
     17       1.6549      2.00000
     18       1.7027      2.00000
     19       1.7515      2.00000
     20       1.8179      2.00000
     21       1.8999      2.00000
     22       1.9405      2.00000
     23       2.0541      2.00000
     24       2.1291      2.00000
     25       2.1684      2.00000
     26       2.2150      2.00000
     27       2.3110      2.00000
     28       2.3272      2.00000
     29       2.4825      2.00000
     30       2.5230      2.00000
     31       2.5722      2.00000
     32       2.5848      2.00000
     33       2.6346      2.00000
     34       2.6590      2.00000
     35       2.7645      2.00000
     36       2.7824      2.00000
     37       2.8159      2.00000
     38       2.8956      2.00000
     39       2.9247      2.00000
     40       2.9614      2.00000
     41       3.0035      2.00000
     42       3.1047      2.00000
     43       3.1739      2.00000
     44       3.2414      2.00000
     45       3.5044      2.00000
     46       3.6471      2.00000
     47       3.7009      2.00000
     48       3.9790      2.00000
     49       4.4160      2.00000
     50       4.8341      2.00000
     51       5.0248      2.00000
     52       5.2581      2.00000
     53       5.4994      2.00000
     54       5.7412      2.00000
     55       6.1787      2.00000
     56       6.4832      2.00000
     57       8.2372      0.00000
     58       9.2158      0.00000
     59       9.5852      0.00000
     60      10.0260      0.00000
     61      10.3223      0.00000
     62      10.3919      0.00000
     63      11.0574      0.00000
     64      11.3459      0.00000
     65      11.5052      0.00000
     66      11.9622      0.00000
     67      12.4817      0.00000
     68      12.9313      0.00000

 k-point    72 :      -0.2105   -0.2105    0.2105
  band No.  band energies     occupation 
      1      -6.4836      2.00000
      2      -6.1469      2.00000
      3      -6.0534      2.00000
      4      -5.9584      2.00000
      5       0.5117      2.00000
      6       0.5621      2.00000
      7       0.6805      2.00000
      8       0.7873      2.00000
      9       0.8663      2.00000
     10       0.9911      2.00000
     11       1.1405      2.00000
     12       1.2775      2.00000
     13       1.3266      2.00000
     14       1.3731      2.00000
     15       1.4131      2.00000
     16       1.5561      2.00000
     17       1.6299      2.00000
     18       1.6953      2.00000
     19       1.7540      2.00000
     20       1.7985      2.00000
     21       1.9049      2.00000
     22       1.9388      2.00000
     23       2.0661      2.00000
     24       2.1122      2.00000
     25       2.1692      2.00000
     26       2.2285      2.00000
     27       2.3121      2.00000
     28       2.3365      2.00000
     29       2.4811      2.00000
     30       2.5178      2.00000
     31       2.5716      2.00000
     32       2.6060      2.00000
     33       2.6313      2.00000
     34       2.6683      2.00000
     35       2.7653      2.00000
     36       2.7951      2.00000
     37       2.8365      2.00000
     38       2.9080      2.00000
     39       2.9508      2.00000
     40       2.9569      2.00000
     41       3.0069      2.00000
     42       3.1100      2.00000
     43       3.1646      2.00000
     44       3.2430      2.00000
     45       3.5157      2.00000
     46       3.6283      2.00000
     47       3.7220      2.00000
     48       4.0527      2.00000
     49       4.5051      2.00000
     50       4.8939      2.00000
     51       5.0016      2.00000
     52       5.2198      2.00000
     53       5.5408      2.00000
     54       5.7659      2.00000
     55       6.2792      2.00000
     56       6.4974      2.00000
     57       8.0140      0.00000
     58       9.1196      0.00000
     59       9.4467      0.00000
     60      10.0713      0.00000
     61      10.4889      0.00000
     62      10.5456      0.00000
     63      11.1631      0.00000
     64      11.3410      0.00000
     65      11.6387      0.00000
     66      11.9275      0.00000
     67      12.5225      0.00000
     68      12.9351      0.00000

 k-point    73 :      -0.1842   -0.1842    0.1842
  band No.  band energies     occupation 
      1      -6.5243      2.00000
      2      -6.1553      2.00000
      3      -6.0531      2.00000
      4      -5.9565      2.00000
      5       0.5141      2.00000
      6       0.5557      2.00000
      7       0.6704      2.00000
      8       0.7931      2.00000
      9       0.8618      2.00000
     10       0.9737      2.00000
     11       1.1253      2.00000
     12       1.2440      2.00000
     13       1.3158      2.00000
     14       1.3505      2.00000
     15       1.4335      2.00000
     16       1.5727      2.00000
     17       1.6044      2.00000
     18       1.6884      2.00000
     19       1.7538      2.00000
     20       1.7862      2.00000
     21       1.9114      2.00000
     22       1.9391      2.00000
     23       2.0753      2.00000
     24       2.1016      2.00000
     25       2.1644      2.00000
     26       2.2392      2.00000
     27       2.3079      2.00000
     28       2.3603      2.00000
     29       2.4688      2.00000
     30       2.5080      2.00000
     31       2.5698      2.00000
     32       2.6156      2.00000
     33       2.6258      2.00000
     34       2.6868      2.00000
     35       2.7655      2.00000
     36       2.8122      2.00000
     37       2.8609      2.00000
     38       2.9207      2.00000
     39       2.9481      2.00000
     40       2.9836      2.00000
     41       3.0140      2.00000
     42       3.1139      2.00000
     43       3.1571      2.00000
     44       3.2399      2.00000
     45       3.5174      2.00000
     46       3.5955      2.00000
     47       3.7368      2.00000
     48       4.1542      2.00000
     49       4.5976      2.00000
     50       4.8851      2.00000
     51       4.9455      2.00000
     52       5.2336      2.00000
     53       5.6702      2.00000
     54       5.7862      2.00000
     55       6.3719      2.00000
     56       6.5113      2.00000
     57       7.7868      0.00000
     58       8.9993      0.00000
     59       9.3291      0.00000
     60      10.0875      0.00000
     61      10.5690      0.00000
     62      10.7573      0.00000
     63      11.2442      0.00000
     64      11.3101      0.00000
     65      11.8157      0.00000
     66      11.9219      0.00000
     67      12.5009      0.00000
     68      12.8981      0.00000

 k-point    74 :      -0.1579   -0.1579    0.1579
  band No.  band energies     occupation 
      1      -6.5617      2.00000
      2      -6.1637      2.00000
      3      -6.0515      2.00000
      4      -5.9551      2.00000
      5       0.5089      2.00000
      6       0.5542      2.00000
      7       0.6507      2.00000
      8       0.7867      2.00000
      9       0.8845      2.00000
     10       0.9554      2.00000
     11       1.1108      2.00000
     12       1.2168      2.00000
     13       1.2965      2.00000
     14       1.3286      2.00000
     15       1.4577      2.00000
     16       1.5823      2.00000
     17       1.5931      2.00000
     18       1.6793      2.00000
     19       1.7411      2.00000
     20       1.7914      2.00000
     21       1.9202      2.00000
     22       1.9454      2.00000
     23       2.0807      2.00000
     24       2.0995      2.00000
     25       2.1580      2.00000
     26       2.2474      2.00000
     27       2.2994      2.00000
     28       2.3848      2.00000
     29       2.4518      2.00000
     30       2.4972      2.00000
     31       2.5627      2.00000
     32       2.6128      2.00000
     33       2.6235      2.00000
     34       2.7073      2.00000
     35       2.7667      2.00000
     36       2.8368      2.00000
     37       2.8739      2.00000
     38       2.9320      2.00000
     39       2.9505      2.00000
     40       3.0080      2.00000
     41       3.0295      2.00000
     42       3.1166      2.00000
     43       3.1525      2.00000
     44       3.2370      2.00000
     45       3.5115      2.00000
     46       3.5665      2.00000
     47       3.7377      2.00000
     48       4.2707      2.00000
     49       4.6638      2.00000
     50       4.7803      2.00000
     51       4.9304      2.00000
     52       5.3335      2.00000
     53       5.7726      2.00000
     54       5.8614      2.00000
     55       6.4523      2.00000
     56       6.5283      2.00000
     57       7.5613      0.00000
     58       8.8405      0.00000
     59       9.2533      0.00000
     60      10.0661      0.00000
     61      10.5896      0.00000
     62      10.9298      0.00000
     63      11.2679      0.00000
     64      11.3296      0.00000
     65      11.9024      0.00000
     66      12.0810      0.00000
     67      12.4835      0.00000
     68      12.9163      0.00000

 k-point    75 :      -0.1316   -0.1316    0.1316
  band No.  band energies     occupation 
      1      -6.5949      2.00000
      2      -6.1717      2.00000
      3      -6.0491      2.00000
      4      -5.9542      2.00000
      5       0.5019      2.00000
      6       0.5544      2.00000
      7       0.6289      2.00000
      8       0.7723      2.00000
      9       0.8965      2.00000
     10       0.9595      2.00000
     11       1.0998      2.00000
     12       1.1946      2.00000
     13       1.2754      2.00000
     14       1.3079      2.00000
     15       1.4782      2.00000
     16       1.5663      2.00000
     17       1.6142      2.00000
     18       1.6678      2.00000
     19       1.7229      2.00000
     20       1.8071      2.00000
     21       1.9359      2.00000
     22       1.9555      2.00000
     23       2.0791      2.00000
     24       2.1101      2.00000
     25       2.1520      2.00000
     26       2.2506      2.00000
     27       2.2886      2.00000
     28       2.4030      2.00000
     29       2.4400      2.00000
     30       2.4877      2.00000
     31       2.5460      2.00000
     32       2.6056      2.00000
     33       2.6186      2.00000
     34       2.7274      2.00000
     35       2.7702      2.00000
     36       2.8609      2.00000
     37       2.8734      2.00000
     38       2.9398      2.00000
     39       2.9617      2.00000
     40       3.0222      2.00000
     41       3.0576      2.00000
     42       3.1175      2.00000
     43       3.1480      2.00000
     44       3.2447      2.00000
     45       3.4978      2.00000
     46       3.5473      2.00000
     47       3.7307      2.00000
     48       4.3795      2.00000
     49       4.5691      2.00000
     50       4.8187      2.00000
     51       4.9205      2.00000
     52       5.4748      2.00000
     53       5.7888      2.00000
     54       6.0270      2.00000
     55       6.5097      2.00000
     56       6.5593      2.00000
     57       7.3431      0.00000
     58       8.6558      0.00000
     59       9.2116      0.00000
     60      10.0049      0.00000
     61      10.5208      0.00000
     62      11.0305      0.00000
     63      11.2810      0.00000
     64      11.4415      0.00000
     65      11.9605      0.00000
     66      12.2225      0.00000
     67      12.6071      0.00000
     68      12.9357      0.00000

 k-point    76 :      -0.1053   -0.1053    0.1053
  band No.  band energies     occupation 
      1      -6.6232      2.00000
      2      -6.1788      2.00000
      3      -6.0463      2.00000
      4      -5.9537      2.00000
      5       0.4955      2.00000
      6       0.5558      2.00000
      7       0.6085      2.00000
      8       0.7580      2.00000
      9       0.8778      2.00000
     10       0.9927      2.00000
     11       1.0932      2.00000
     12       1.1755      2.00000
     13       1.2614      2.00000
     14       1.2856      2.00000
     15       1.4934      2.00000
     16       1.5538      2.00000
     17       1.6331      2.00000
     18       1.6584      2.00000
     19       1.7052      2.00000
     20       1.8228      2.00000
     21       1.9516      2.00000
     22       1.9762      2.00000
     23       2.0759      2.00000
     24       2.1289      2.00000
     25       2.1476      2.00000
     26       2.2428      2.00000
     27       2.2833      2.00000
     28       2.4133      2.00000
     29       2.4373      2.00000
     30       2.4796      2.00000
     31       2.5213      2.00000
     32       2.5923      2.00000
     33       2.6157      2.00000
     34       2.7401      2.00000
     35       2.7767      2.00000
     36       2.8604      2.00000
     37       2.8855      2.00000
     38       2.9468      2.00000
     39       2.9726      2.00000
     40       3.0333      2.00000
     41       3.0907      2.00000
     42       3.1174      2.00000
     43       3.1416      2.00000
     44       3.2683      2.00000
     45       3.4753      2.00000
     46       3.5398      2.00000
     47       3.7219      2.00000
     48       4.3548      2.00000
     49       4.5514      2.00000
     50       4.8405      2.00000
     51       4.9828      2.00000
     52       5.6151      2.00000
     53       5.8118      2.00000
     54       6.1855      2.00000
     55       6.5421      2.00000
     56       6.6082      2.00000
     57       7.1386      0.00000
     58       8.4651      0.00000
     59       9.1924      0.00000
     60       9.9082      0.00000
     61      10.3888      0.00000
     62      11.0847      0.00000
     63      11.3369      0.00000
     64      11.5691      0.00000
     65      12.0215      0.00000
     66      12.2605      0.00000
     67      12.8990      0.00000
     68      12.9880      0.00000

 k-point    77 :      -0.0789   -0.0789    0.0789
  band No.  band energies     occupation 
      1      -6.6459      2.00000
      2      -6.1846      2.00000
      3      -6.0436      2.00000
      4      -5.9535      2.00000
      5       0.4897      2.00000
      6       0.5585      2.00000
      7       0.5913      2.00000
      8       0.7475      2.00000
      9       0.8521      2.00000
     10       1.0255      2.00000
     11       1.0893      2.00000
     12       1.1613      2.00000
     13       1.2512      2.00000
     14       1.2689      2.00000
     15       1.5016      2.00000
     16       1.5460      2.00000
     17       1.6347      2.00000
     18       1.6636      2.00000
     19       1.6943      2.00000
     20       1.8284      2.00000
     21       1.9583      2.00000
     22       2.0146      2.00000
     23       2.0734      2.00000
     24       2.1330      2.00000
     25       2.1644      2.00000
     26       2.2314      2.00000
     27       2.2843      2.00000
     28       2.4139      2.00000
     29       2.4387      2.00000
     30       2.4705      2.00000
     31       2.4980      2.00000
     32       2.5764      2.00000
     33       2.6143      2.00000
     34       2.7352      2.00000
     35       2.7885      2.00000
     36       2.8567      2.00000
     37       2.8923      2.00000
     38       2.9558      2.00000
     39       2.9808      2.00000
     40       3.0419      2.00000
     41       3.1046      2.00000
     42       3.1342      2.00000
     43       3.1434      2.00000
     44       3.3008      2.00000
     45       3.4477      2.00000
     46       3.5377      2.00000
     47       3.7193      2.00000
     48       4.2136      2.00000
     49       4.6316      2.00000
     50       4.8395      2.00000
     51       5.0841      2.00000
     52       5.6965      2.00000
     53       5.8915      2.00000
     54       6.3090      2.00000
     55       6.5752      2.00000
     56       6.6534      2.00000
     57       6.9573     -0.00000
     58       8.2849      0.00000
     59       9.1918      0.00000
     60       9.7851      0.00000
     61      10.2498      0.00000
     62      11.1218      0.00000
     63      11.4002      0.00000
     64      11.6806      0.00000
     65      12.0568      0.00000
     66      12.3020      0.00000
     67      13.0562      0.00000
     68      13.2263      0.00000

 k-point    78 :      -0.0526   -0.0526    0.0526
  band No.  band energies     occupation 
      1      -6.6625      2.00000
      2      -6.1890      2.00000
      3      -6.0413      2.00000
      4      -5.9534      2.00000
      5       0.4850      2.00000
      6       0.5605      2.00000
      7       0.5796      2.00000
      8       0.7443      2.00000
      9       0.8250      2.00000
     10       1.0496      2.00000
     11       1.0860      2.00000
     12       1.1547      2.00000
     13       1.2323      2.00000
     14       1.2701      2.00000
     15       1.5011      2.00000
     16       1.5452      2.00000
     17       1.6271      2.00000
     18       1.6635      2.00000
     19       1.7049      2.00000
     20       1.8200      2.00000
     21       1.9648      2.00000
     22       2.0468      2.00000
     23       2.0759      2.00000
     24       2.1290      2.00000
     25       2.1960      2.00000
     26       2.2329      2.00000
     27       2.2848      2.00000
     28       2.3980      2.00000
     29       2.4266      2.00000
     30       2.4665      2.00000
     31       2.4924      2.00000
     32       2.5630      2.00000
     33       2.6119      2.00000
     34       2.7175      2.00000
     35       2.8016      2.00000
     36       2.8550      2.00000
     37       2.8933      2.00000
     38       2.9648      2.00000
     39       2.9874      2.00000
     40       3.0470      2.00000
     41       3.0991      2.00000
     42       3.1353      2.00000
     43       3.1877      2.00000
     44       3.3325      2.00000
     45       3.4176      2.00000
     46       3.5341      2.00000
     47       3.7328      2.00000
     48       4.0758      2.00000
     49       4.6826      2.00000
     50       4.8581      2.00000
     51       5.1777      2.00000
     52       5.7167      2.00000
     53       6.0188      2.00000
     54       6.3810      2.00000
     55       6.6043      2.00000
     56       6.6896      2.00000
     57       6.8194     -0.00000
     58       8.1325      0.00000
     59       9.2117      0.00000
     60       9.6507      0.00000
     61      10.1394      0.00000
     62      11.1477      0.00000
     63      11.4547      0.00000
     64      11.7622      0.00000
     65      12.0653      0.00000
     66      12.3597      0.00000
     67      13.1340      0.00000
     68      13.3403      0.00000

 k-point    79 :      -0.0263   -0.0263    0.0263
  band No.  band energies     occupation 
      1      -6.6726      2.00000
      2      -6.1917      2.00000
      3      -6.0399      2.00000
      4      -5.9534      2.00000
      5       0.4819      2.00000
      6       0.5590      2.00000
      7       0.5756      2.00000
      8       0.7498      2.00000
      9       0.7996      2.00000
     10       1.0632      2.00000
     11       1.0846      2.00000
     12       1.1541      2.00000
     13       1.2153      2.00000
     14       1.2764      2.00000
     15       1.4967      2.00000
     16       1.5479      2.00000
     17       1.6211      2.00000
     18       1.6574      2.00000
     19       1.7273      2.00000
     20       1.8019      2.00000
     21       1.9726      2.00000
     22       2.0495      2.00000
     23       2.0833      2.00000
     24       2.1360      2.00000
     25       2.2271      2.00000
     26       2.2553      2.00000
     27       2.2813      2.00000
     28       2.3599      2.00000
     29       2.4117      2.00000
     30       2.4672      2.00000
     31       2.4986      2.00000
     32       2.5575      2.00000
     33       2.6067      2.00000
     34       2.7001      2.00000
     35       2.8110      2.00000
     36       2.8524      2.00000
     37       2.8940      2.00000
     38       2.9718      2.00000
     39       2.9918      2.00000
     40       3.0490      2.00000
     41       3.0944      2.00000
     42       3.1355      2.00000
     43       3.2321      2.00000
     44       3.3551      2.00000
     45       3.3888      2.00000
     46       3.5278      2.00000
     47       3.7685      2.00000
     48       3.9597      2.00000
     49       4.6996      2.00000
     50       4.8878      2.00000
     51       5.2444      2.00000
     52       5.7203      2.00000
     53       6.1308      2.00000
     54       6.4116      2.00000
     55       6.5789      2.00000
     56       6.7233      2.00568
     57       6.7614     -0.05249
     58       8.0280      0.00000
     59       9.2515      0.00000
     60       9.5285      0.00000
     61      10.0714      0.00000
     62      11.1632      0.00000
     63      11.4910      0.00000
     64      11.8102      0.00000
     65      12.0656      0.00000
     66      12.4076      0.00000
     67      13.1892      0.00000
     68      13.3231      0.00000

 k-point    80 :       0.0000    0.0000    0.0000
  band No.  band energies     occupation 
      1      -6.6759      2.00000
      2      -6.1926      2.00000
      3      -6.0394      2.00000
      4      -5.9534      2.00000
      5       0.4808      2.00000
      6       0.5575      2.00000
      7       0.5753      2.00000
      8       0.7569      2.00000
      9       0.7855      2.00000
     10       1.0667      2.00000
     11       1.0850      2.00000
     12       1.1549      2.00000
     13       1.2083      2.00000
     14       1.2794      2.00000
     15       1.4945      2.00000
     16       1.5494      2.00000
     17       1.6190      2.00000
     18       1.6548      2.00000
     19       1.7412      2.00000
     20       1.7893      2.00000
     21       1.9765      2.00000
     22       2.0468      2.00000
     23       2.0842      2.00000
     24       2.1411      2.00000
     25       2.2471      2.00000
     26       2.2701      2.00000
     27       2.2849      2.00000
     28       2.3277      2.00000
     29       2.4055      2.00000
     30       2.4679      2.00000
     31       2.5015      2.00000
     32       2.5583      2.00000
     33       2.6028      2.00000
     34       2.6932      2.00000
     35       2.8143      2.00000
     36       2.8511      2.00000
     37       2.8944      2.00000
     38       2.9745      2.00000
     39       2.9934      2.00000
     40       3.0495      2.00000
     41       3.0926      2.00000
     42       3.1356      2.00000
     43       3.2536      2.00000
     44       3.3605      2.00000
     45       3.3766      2.00000
     46       3.5243      2.00000
     47       3.8043      2.00000
     48       3.8963      2.00000
     49       4.7026      2.00000
     50       4.9012      2.00000
     51       5.2688      2.00000
     52       5.7208      2.00000
     53       6.1790      2.00000
     54       6.4198      2.00000
     55       6.5472      2.00000
     56       6.7384      1.96792
     57       6.7548     -0.01076
     58       7.9903      0.00000
     59       9.2822      0.00000
     60       9.4677      0.00000
     61      10.0487      0.00000
     62      11.1683      0.00000
     63      11.5037      0.00000
     64      11.8258      0.00000
     65      12.0655      0.00000
     66      12.4262      0.00000
     67      13.2086      0.00000
     68      13.3119      0.00000

 k-point    81 :       0.0000    0.0000    0.0000
  band No.  band energies     occupation 
      1      -6.6759      2.00000
      2      -6.1926      2.00000
      3      -6.0394      2.00000
      4      -5.9534      2.00000
      5       0.4808      2.00000
      6       0.5575      2.00000
      7       0.5753      2.00000
      8       0.7569      2.00000
      9       0.7855      2.00000
     10       1.0667      2.00000
     11       1.0850      2.00000
     12       1.1549      2.00000
     13       1.2083      2.00000
     14       1.2794      2.00000
     15       1.4945      2.00000
     16       1.5494      2.00000
     17       1.6190      2.00000
     18       1.6548      2.00000
     19       1.7412      2.00000
     20       1.7893      2.00000
     21       1.9765      2.00000
     22       2.0468      2.00000
     23       2.0842      2.00000
     24       2.1411      2.00000
     25       2.2471      2.00000
     26       2.2701      2.00000
     27       2.2849      2.00000
     28       2.3277      2.00000
     29       2.4055      2.00000
     30       2.4679      2.00000
     31       2.5015      2.00000
     32       2.5583      2.00000
     33       2.6028      2.00000
     34       2.6932      2.00000
     35       2.8143      2.00000
     36       2.8511      2.00000
     37       2.8944      2.00000
     38       2.9745      2.00000
     39       2.9934      2.00000
     40       3.0495      2.00000
     41       3.0926      2.00000
     42       3.1356      2.00000
     43       3.2536      2.00000
     44       3.3605      2.00000
     45       3.3766      2.00000
     46       3.5243      2.00000
     47       3.8043      2.00000
     48       3.8963      2.00000
     49       4.7026      2.00000
     50       4.9012      2.00000
     51       5.2688      2.00000
     52       5.7208      2.00000
     53       6.1790      2.00000
     54       6.4198      2.00000
     55       6.5472      2.00000
     56       6.7384      1.96791
     57       6.7548     -0.01076
     58       7.9903      0.00000
     59       9.2822      0.00000
     60       9.4677      0.00000
     61      10.0487      0.00000
     62      11.1683      0.00000
     63      11.5037      0.00000
     64      11.8258      0.00000
     65      12.0655      0.00000
     66      12.4262      0.00000
     67      13.2088      0.00000
     68      13.3117      0.00000

 k-point    82 :       0.0000   -0.0263    0.0263
  band No.  band energies     occupation 
      1      -6.6743      2.00000
      2      -6.1934      2.00000
      3      -6.0403      2.00000
      4      -5.9535      2.00000
      5       0.4802      2.00000
      6       0.5550      2.00000
      7       0.5792      2.00000
      8       0.7473      2.00000
      9       0.7927      2.00000
     10       1.0574      2.00000
     11       1.0888      2.00000
     12       1.1579      2.00000
     13       1.2128      2.00000
     14       1.2830      2.00000
     15       1.4928      2.00000
     16       1.5484      2.00000
     17       1.6201      2.00000
     18       1.6562      2.00000
     19       1.7276      2.00000
     20       1.8027      2.00000
     21       1.9726      2.00000
     22       2.0484      2.00000
     23       2.0867      2.00000
     24       2.1395      2.00000
     25       2.2368      2.00000
     26       2.2645      2.00000
     27       2.2861      2.00000
     28       2.3381      2.00000
     29       2.4042      2.00000
     30       2.4666      2.00000
     31       2.5039      2.00000
     32       2.5586      2.00000
     33       2.6023      2.00000
     34       2.6974      2.00000
     35       2.8133      2.00000
     36       2.8497      2.00000
     37       2.8925      2.00000
     38       2.9719      2.00000
     39       2.9927      2.00000
     40       3.0513      2.00000
     41       3.0937      2.00000
     42       3.1312      2.00000
     43       3.2600      2.00000
     44       3.3599      2.00000
     45       3.3752      2.00000
     46       3.5238      2.00000
     47       3.7624      2.00000
     48       3.9483      2.00000
     49       4.6968      2.00000
     50       4.9119      2.00000
     51       5.2688      2.00000
     52       5.7158      2.00000
     53       6.1696      2.00000
     54       6.4032      2.00000
     55       6.5470      2.00000
     56       6.7365      2.04119
     57       6.7828     -0.00000
     58       7.9995      0.00000
     59       9.2270      0.00000
     60       9.4930      0.00000
     61      10.0721      0.00000
     62      11.1744      0.00000
     63      11.5019      0.00000
     64      11.8226      0.00000
     65      12.0683      0.00000
     66      12.4222      0.00000
     67      13.2028      0.00000
     68      13.3104      0.00000

 k-point    83 :       0.0000   -0.0526    0.0526
  band No.  band energies     occupation 
      1      -6.6695      2.00000
      2      -6.1959      2.00000
      3      -6.0431      2.00000
      4      -5.9538      2.00000
      5       0.4786      2.00000
      6       0.5489      2.00000
      7       0.5893      2.00000
      8       0.7296      2.00000
      9       0.8034      2.00000
     10       1.0394      2.00000
     11       1.0924      2.00000
     12       1.1664      2.00000
     13       1.2228      2.00000
     14       1.2948      2.00000
     15       1.4882      2.00000
     16       1.5451      2.00000
     17       1.6217      2.00000
     18       1.6604      2.00000
     19       1.7061      2.00000
     20       1.8246      2.00000
     21       1.9639      2.00000
     22       2.0488      2.00000
     23       2.0958      2.00000
     24       2.1346      2.00000
     25       2.2097      2.00000
     26       2.2591      2.00000
     27       2.2891      2.00000
     28       2.3546      2.00000
     29       2.4030      2.00000
     30       2.4629      2.00000
     31       2.5086      2.00000
     32       2.5604      2.00000
     33       2.6016      2.00000
     34       2.7092      2.00000
     35       2.8103      2.00000
     36       2.8458      2.00000
     37       2.8880      2.00000
     38       2.9649      2.00000
     39       2.9906      2.00000
     40       3.0550      2.00000
     41       3.0963      2.00000
     42       3.1225      2.00000
     43       3.2739      2.00000
     44       3.3567      2.00000
     45       3.3753      2.00000
     46       3.5193      2.00000
     47       3.7062      2.00000
     48       4.0356      2.00000
     49       4.6830      2.00000
     50       4.9404      2.00000
     51       5.2688      2.00000
     52       5.7018      2.00000
     53       6.1409      2.00000
     54       6.3709      2.00000
     55       6.5416      2.00000
     56       6.7329      2.06823
     57       6.8526     -0.00000
     58       8.0263      0.00000
     59       9.1132      0.00000
     60       9.5216      0.00000
     61      10.1384      0.00000
     62      11.1914      0.00000
     63      11.4969      0.00000
     64      11.8130      0.00000
     65      12.0767      0.00000
     66      12.4103      0.00000
     67      13.1853      0.00000
     68      13.3082      0.00000

 k-point    84 :       0.0000   -0.0789    0.0789
  band No.  band energies     occupation 
      1      -6.6616      2.00000
      2      -6.1998      2.00000
      3      -6.0476      2.00000
      4      -5.9546      2.00000
      5       0.4763      2.00000
      6       0.5402      2.00000
      7       0.6040      2.00000
      8       0.7110      2.00000
      9       0.8115      2.00000
     10       1.0187      2.00000
     11       1.0957      2.00000
     12       1.1752      2.00000
     13       1.2347      2.00000
     14       1.3158      2.00000
     15       1.4819      2.00000
     16       1.5387      2.00000
     17       1.6178      2.00000
     18       1.6660      2.00000
     19       1.6933      2.00000
     20       1.8422      2.00000
     21       1.9561      2.00000
     22       2.0436      2.00000
     23       2.1077      2.00000
     24       2.1300      2.00000
     25       2.1790      2.00000
     26       2.2547      2.00000
     27       2.2944      2.00000
     28       2.3621      2.00000
     29       2.4092      2.00000
     30       2.4585      2.00000
     31       2.5099      2.00000
     32       2.5659      2.00000
     33       2.6015      2.00000
     34       2.7260      2.00000
     35       2.8055      2.00000
     36       2.8398      2.00000
     37       2.8825      2.00000
     38       2.9552      2.00000
     39       2.9872      2.00000
     40       3.0558      2.00000
     41       3.0987      2.00000
     42       3.1186      2.00000
     43       3.2842      2.00000
     44       3.3519      2.00000
     45       3.3836      2.00000
     46       3.5045      2.00000
     47       3.6652      2.00000
     48       4.1302      2.00000
     49       4.6676      2.00000
     50       4.9798      2.00000
     51       5.2691      2.00000
     52       5.6820      2.00000
     53       6.0939      2.00000
     54       6.3420      2.00000
     55       6.5287      2.00000
     56       6.7268      2.01985
     57       6.9460     -0.00000
     58       8.0694      0.00000
     59       8.9804      0.00000
     60       9.5271      0.00000
     61      10.2360      0.00000
     62      11.2157      0.00000
     63      11.4895      0.00000
     64      11.7970      0.00000
     65      12.0901      0.00000
     66      12.3914      0.00000
     67      13.1511      0.00000
     68      13.3000      0.00000

 k-point    85 :       0.0000   -0.1053    0.1053
  band No.  band energies     occupation 
      1      -6.6506      2.00000
      2      -6.2049      2.00000
      3      -6.0537      2.00000
      4      -5.9560      2.00000
      5       0.4734      2.00000
      6       0.5293      2.00000
      7       0.6222      2.00000
      8       0.6945      2.00000
      9       0.8158      2.00000
     10       0.9973      2.00000
     11       1.1011      2.00000
     12       1.1778      2.00000
     13       1.2501      2.00000
     14       1.3434      2.00000
     15       1.4752      2.00000
     16       1.5285      2.00000
     17       1.6049      2.00000
     18       1.6682      2.00000
     19       1.6987      2.00000
     20       1.8500      2.00000
     21       1.9540      2.00000
     22       2.0337      2.00000
     23       2.1017      2.00000
     24       2.1429      2.00000
     25       2.1534      2.00000
     26       2.2493      2.00000
     27       2.3025      2.00000
     28       2.3602      2.00000
     29       2.4208      2.00000
     30       2.4567      2.00000
     31       2.5047      2.00000
     32       2.5761      2.00000
     33       2.6020      2.00000
     34       2.7435      2.00000
     35       2.8000      2.00000
     36       2.8325      2.00000
     37       2.8780      2.00000
     38       2.9445      2.00000
     39       2.9824      2.00000
     40       3.0494      2.00000
     41       3.1009      2.00000
     42       3.1243      2.00000
     43       3.2833      2.00000
     44       3.3485      2.00000
     45       3.4014      2.00000
     46       3.4779      2.00000
     47       3.6436      2.00000
     48       4.2234      2.00000
     49       4.6572      2.00000
     50       5.0239      2.00000
     51       5.2707      2.00000
     52       5.6606      2.00000
     53       6.0350      2.00000
     54       6.3195      2.00000
     55       6.5099      2.00000
     56       6.7177      2.00044
     57       7.0518      0.00000
     58       8.1265      0.00000
     59       8.8417      0.00000
     60       9.5125      0.00000
     61      10.3510      0.00000
     62      11.2417      0.00000
     63      11.4806      0.00000
     64      11.7749      0.00000
     65      12.1077      0.00000
     66      12.3666      0.00000
     67      13.0999      0.00000
     68      13.3323      0.00000

 k-point    86 :       0.0000   -0.1316    0.1316
  band No.  band energies     occupation 
      1      -6.6366      2.00000
      2      -6.2110      2.00000
      3      -6.0611      2.00000
      4      -5.9585      2.00000
      5       0.4701      2.00000
      6       0.5169      2.00000
      7       0.6406      2.00000
      8       0.6837      2.00000
      9       0.8168      2.00000
     10       0.9766      2.00000
     11       1.1085      2.00000
     12       1.1723      2.00000
     13       1.2696      2.00000
     14       1.3728      2.00000
     15       1.4688      2.00000
     16       1.5144      2.00000
     17       1.5886      2.00000
     18       1.6669      2.00000
     19       1.7167      2.00000
     20       1.8469      2.00000
     21       1.9585      2.00000
     22       2.0206      2.00000
     23       2.0874      2.00000
     24       2.1329      2.00000
     25       2.1665      2.00000
     26       2.2429      2.00000
     27       2.3130      2.00000
     28       2.3570      2.00000
     29       2.4255      2.00000
     30       2.4642      2.00000
     31       2.4951      2.00000
     32       2.5875      2.00000
     33       2.6040      2.00000
     34       2.7549      2.00000
     35       2.7978      2.00000
     36       2.8253      2.00000
     37       2.8751      2.00000
     38       2.9340      2.00000
     39       2.9763      2.00000
     40       3.0382      2.00000
     41       3.1044      2.00000
     42       3.1351      2.00000
     43       3.2731      2.00000
     44       3.3459      2.00000
     45       3.4126      2.00000
     46       3.4604      2.00000
     47       3.6352      2.00000
     48       4.3043      2.00000
     49       4.6608      2.00000
     50       5.0660      2.00000
     51       5.2760      2.00000
     52       5.6419      2.00000
     53       5.9719      2.00000
     54       6.2992      2.00000
     55       6.4875      2.00000
     56       6.7052      2.00000
     57       7.1643      0.00000
     58       8.1947      0.00000
     59       8.7041      0.00000
     60       9.4844      0.00000
     61      10.4729      0.00000
     62      11.2631      0.00000
     63      11.4698      0.00000
     64      11.7488      0.00000
     65      12.1282      0.00000
     66      12.3376      0.00000
     67      13.0270      0.00000
     68      13.2140      0.00000

 k-point    87 :       0.0000   -0.1579    0.1579
  band No.  band energies     occupation 
      1      -6.6199      2.00000
      2      -6.2177      2.00000
      3      -6.0698      2.00000
      4      -5.9622      2.00000
      5       0.4661      2.00000
      6       0.5040      2.00000
      7       0.6492      2.00000
      8       0.6883      2.00000
      9       0.8149      2.00000
     10       0.9576      2.00000
     11       1.1147      2.00000
     12       1.1625      2.00000
     13       1.2904      2.00000
     14       1.3987      2.00000
     15       1.4630      2.00000
     16       1.4978      2.00000
     17       1.5762      2.00000
     18       1.6629      2.00000
     19       1.7392      2.00000
     20       1.8372      2.00000
     21       1.9659      2.00000
     22       2.0071      2.00000
     23       2.0755      2.00000
     24       2.1196      2.00000
     25       2.1868      2.00000
     26       2.2381      2.00000
     27       2.3235      2.00000
     28       2.3586      2.00000
     29       2.4211      2.00000
     30       2.4771      2.00000
     31       2.4865      2.00000
     32       2.5920      2.00000
     33       2.6125      2.00000
     34       2.7547      2.00000
     35       2.8002      2.00000
     36       2.8213      2.00000
     37       2.8730      2.00000
     38       2.9240      2.00000
     39       2.9703      2.00000
     40       3.0267      2.00000
     41       3.1087      2.00000
     42       3.1472      2.00000
     43       3.2564      2.00000
     44       3.3435      2.00000
     45       3.3916      2.00000
     46       3.4829      2.00000
     47       3.6323      2.00000
     48       4.3578      2.00000
     49       4.6905      2.00000
     50       5.0989      2.00000
     51       5.2891      2.00000
     52       5.6298      2.00000
     53       5.9104      2.00000
     54       6.2765      2.00000
     55       6.4639      2.00000
     56       6.6887      2.00000
     57       7.2803      0.00000
     58       8.2703      0.00000
     59       8.5732      0.00000
     60       9.4478      0.00000
     61      10.5943      0.00000
     62      11.2753      0.00000
     63      11.4526      0.00000
     64      11.7229      0.00000
     65      12.1476      0.00000
     66      12.3073      0.00000
     67      12.9226      0.00000
     68      13.0323      0.00000

 k-point    88 :       0.0000   -0.1842    0.1842
  band No.  band energies     occupation 
      1      -6.6006      2.00000
      2      -6.2246      2.00000
      3      -6.0795      2.00000
      4      -5.9676      2.00000
      5       0.4611      2.00000
      6       0.4918      2.00000
      7       0.6464      2.00000
      8       0.7084      2.00000
      9       0.8116      2.00000
     10       0.9411      2.00000
     11       1.1095      2.00000
     12       1.1590      2.00000
     13       1.3090      2.00000
     14       1.4137      2.00000
     15       1.4573      2.00000
     16       1.4834      2.00000
     17       1.5726      2.00000
     18       1.6568      2.00000
     19       1.7616      2.00000
     20       1.8278      2.00000
     21       1.9702      2.00000
     22       1.9971      2.00000
     23       2.0678      2.00000
     24       2.1120      2.00000
     25       2.1951      2.00000
     26       2.2437      2.00000
     27       2.3322      2.00000
     28       2.3680      2.00000
     29       2.4126      2.00000
     30       2.4721      2.00000
     31       2.4972      2.00000
     32       2.5898      2.00000
     33       2.6251      2.00000
     34       2.7484      2.00000
     35       2.7972      2.00000
     36       2.8253      2.00000
     37       2.8704      2.00000
     38       2.9132      2.00000
     39       2.9684      2.00000
     40       3.0170      2.00000
     41       3.1129      2.00000
     42       3.1582      2.00000
     43       3.2328      2.00000
     44       3.3422      2.00000
     45       3.3695      2.00000
     46       3.5188      2.00000
     47       3.6306      2.00000
     48       4.3762      2.00000
     49       4.7509      2.00000
     50       5.1174      2.00000
     51       5.3127      2.00000
     52       5.6263      2.00000
     53       5.8552      2.00000
     54       6.2482      2.00000
     55       6.4415      2.00000
     56       6.6681      2.00000
     57       7.3975      0.00000
     58       8.3417      0.00000
     59       8.4617      0.00000
     60       9.4058      0.00000
     61      10.7096      0.00000
     62      11.2780      0.00000
     63      11.4205      0.00000
     64      11.7040      0.00000
     65      12.1552      0.00000
     66      12.2832      0.00000
     67      12.7635      0.00000
     68      12.8933      0.00000

 k-point    89 :       0.0000   -0.2105    0.2105
  band No.  band energies     occupation 
      1      -6.5789      2.00000
      2      -6.2316      2.00000
      3      -6.0900      2.00000
      4      -5.9747      2.00000
      5       0.4551      2.00000
      6       0.4815      2.00000
      7       0.6424      2.00000
      8       0.7302      2.00000
      9       0.8088      2.00000
     10       0.9285      2.00000
     11       1.0880      2.00000
     12       1.1667      2.00000
     13       1.3220      2.00000
     14       1.4131      2.00000
     15       1.4518      2.00000
     16       1.4754      2.00000
     17       1.5800      2.00000
     18       1.6505      2.00000
     19       1.7759      2.00000
     20       1.8283      2.00000
     21       1.9663      2.00000
     22       1.9942      2.00000
     23       2.0653      2.00000
     24       2.1093      2.00000
     25       2.1897      2.00000
     26       2.2615      2.00000
     27       2.3409      2.00000
     28       2.3803      2.00000
     29       2.4038      2.00000
     30       2.4653      2.00000
     31       2.5078      2.00000
     32       2.5863      2.00000
     33       2.6363      2.00000
     34       2.7418      2.00000
     35       2.7901      2.00000
     36       2.8306      2.00000
     37       2.8668      2.00000
     38       2.9016      2.00000
     39       2.9732      2.00000
     40       3.0092      2.00000
     41       3.1166      2.00000
     42       3.1654      2.00000
     43       3.2046      2.00000
     44       3.3387      2.00000
     45       3.3610      2.00000
     46       3.5578      2.00000
     47       3.6284      2.00000
     48       4.3681      2.00000
     49       4.8298      2.00000
     50       5.1241      2.00000
     51       5.3432      2.00000
     52       5.6306      2.00000
     53       5.8106      2.00000
     54       6.2130      2.00000
     55       6.4217      2.00000
     56       6.6431      2.00000
     57       7.5146      0.00000
     58       8.3170      0.00000
     59       8.4625      0.00000
     60       9.3607      0.00000
     61      10.8134      0.00000
     62      11.2748      0.00000
     63      11.3674      0.00000
     64      11.6959      0.00000
     65      12.1304      0.00000
     66      12.2738      0.00000
     67      12.5953      0.00000
     68      12.7924      0.00000

 k-point    90 :       0.0000   -0.2368    0.2368
  band No.  band energies     occupation 
      1      -6.5551      2.00000
      2      -6.2382      2.00000
      3      -6.1009      2.00000
      4      -5.9839      2.00000
      5       0.4484      2.00000
      6       0.4739      2.00000
      7       0.6399      2.00000
      8       0.7451      2.00000
      9       0.8088      2.00000
     10       0.9213      2.00000
     11       1.0582      2.00000
     12       1.1783      2.00000
     13       1.3259      2.00000
     14       1.4020      2.00000
     15       1.4476      2.00000
     16       1.4730      2.00000
     17       1.5934      2.00000
     18       1.6477      2.00000
     19       1.7775      2.00000
     20       1.8445      2.00000
     21       1.9555      2.00000
     22       1.9965      2.00000
     23       2.0681      2.00000
     24       2.1097      2.00000
     25       2.1806      2.00000
     26       2.2824      2.00000
     27       2.3501      2.00000
     28       2.3805      2.00000
     29       2.4083      2.00000
     30       2.4617      2.00000
     31       2.5099      2.00000
     32       2.5852      2.00000
     33       2.6436      2.00000
     34       2.7364      2.00000
     35       2.7833      2.00000
     36       2.8305      2.00000
     37       2.8628      2.00000
     38       2.8941      2.00000
     39       2.9826      2.00000
     40       3.0032      2.00000
     41       3.1181      2.00000
     42       3.1565      2.00000
     43       3.1888      2.00000
     44       3.3276      2.00000
     45       3.3706      2.00000
     46       3.5972      2.00000
     47       3.6257      2.00000
     48       4.3451      2.00000
     49       4.9122      2.00000
     50       5.1258      2.00000
     51       5.3750      2.00000
     52       5.6366      2.00000
     53       5.7824      2.00000
     54       6.1715      2.00000
     55       6.4046      2.00000
     56       6.6137      2.00000
     57       7.6304      0.00000
     58       8.2325      0.00000
     59       8.5402      0.00000
     60       9.3135      0.00000
     61      10.8997      0.00000
     62      11.2700      0.00000
     63      11.2977      0.00000
     64      11.6966      0.00000
     65      12.0633      0.00000
     66      12.2577      0.00000
     67      12.4769      0.00000
     68      12.7036      0.00000

 k-point    91 :       0.0000   -0.2632    0.2632
  band No.  band energies     occupation 
      1      -6.5297      2.00000
      2      -6.2442      2.00000
      3      -6.1121      2.00000
      4      -5.9952      2.00000
      5       0.4421      2.00000
      6       0.4688      2.00000
      7       0.6389      2.00000
      8       0.7491      2.00000
      9       0.8113      2.00000
     10       0.9196      2.00000
     11       1.0282      2.00000
     12       1.1890      2.00000
     13       1.3200      2.00000
     14       1.3878      2.00000
     15       1.4430      2.00000
     16       1.4782      2.00000
     17       1.6032      2.00000
     18       1.6505      2.00000
     19       1.7781      2.00000
     20       1.8665      2.00000
     21       1.9441      2.00000
     22       2.0001      2.00000
     23       2.0743      2.00000
     24       2.1108      2.00000
     25       2.1739      2.00000
     26       2.3003      2.00000
     27       2.3514      2.00000
     28       2.3810      2.00000
     29       2.4211      2.00000
     30       2.4604      2.00000
     31       2.5050      2.00000
     32       2.5876      2.00000
     33       2.6456      2.00000
     34       2.7309      2.00000
     35       2.7789      2.00000
     36       2.8241      2.00000
     37       2.8581      2.00000
     38       2.8963      2.00000
     39       2.9894      2.00000
     40       3.0026      2.00000
     41       3.1075      2.00000
     42       3.1396      2.00000
     43       3.1909      2.00000
     44       3.3133      2.00000
     45       3.3903      2.00000
     46       3.6168      2.00000
     47       3.6420      2.00000
     48       4.3140      2.00000
     49       4.9870      2.00000
     50       5.1295      2.00000
     51       5.4054      2.00000
     52       5.6352      2.00000
     53       5.7758      2.00000
     54       6.1262      2.00000
     55       6.3895      2.00000
     56       6.5800      2.00000
     57       7.7441      0.00000
     58       8.1635      0.00000
     59       8.6195      0.00000
     60       9.2651      0.00000
     61      10.9602      0.00000
     62      11.2109      0.00000
     63      11.2799      0.00000
     64      11.7017      0.00000
     65      11.9543      0.00000
     66      12.2078      0.00000
     67      12.4377      0.00000
     68      12.6257      0.00000

 k-point    92 :       0.0000   -0.2895    0.2895
  band No.  band energies     occupation 
      1      -6.5029      2.00000
      2      -6.2493      2.00000
      3      -6.1233      2.00000
      4      -6.0087      2.00000
      5       0.4371      2.00000
      6       0.4663      2.00000
      7       0.6387      2.00000
      8       0.7454      2.00000
      9       0.8109      2.00000
     10       0.9146      2.00000
     11       1.0107      2.00000
     12       1.1969      2.00000
     13       1.3081      2.00000
     14       1.3724      2.00000
     15       1.4399      2.00000
     16       1.4889      2.00000
     17       1.6069      2.00000
     18       1.6548      2.00000
     19       1.7866      2.00000
     20       1.8833      2.00000
     21       1.9401      2.00000
     22       2.0038      2.00000
     23       2.0792      2.00000
     24       2.1124      2.00000
     25       2.1731      2.00000
     26       2.3043      2.00000
     27       2.3501      2.00000
     28       2.3931      2.00000
     29       2.4310      2.00000
     30       2.4568      2.00000
     31       2.5031      2.00000
     32       2.5909      2.00000
     33       2.6425      2.00000
     34       2.7229      2.00000
     35       2.7764      2.00000
     36       2.8151      2.00000
     37       2.8572      2.00000
     38       2.9050      2.00000
     39       2.9864      2.00000
     40       3.0118      2.00000
     41       3.0796      2.00000
     42       3.1380      2.00000
     43       3.1950      2.00000
     44       3.2969      2.00000
     45       3.4163      2.00000
     46       3.6114      2.00000
     47       3.6820      2.00000
     48       4.2789      2.00000
     49       5.0459      2.00000
     50       5.1413      2.00000
     51       5.4352      2.00000
     52       5.6242      2.00000
     53       5.7854      2.00000
     54       6.0807      2.00000
     55       6.3751      2.00000
     56       6.5430      2.00000
     57       7.8550      0.00000
     58       8.1188      0.00000
     59       8.6910      0.00000
     60       9.2159      0.00000
     61      10.9861      0.00000
     62      11.1315      0.00000
     63      11.2972      0.00000
     64      11.7080      0.00000
     65      11.8186      0.00000
     66      12.1506      0.00000
     67      12.4333      0.00000
     68      12.5602      0.00000

 k-point    93 :       0.0000   -0.3158    0.3158
  band No.  band energies     occupation 
      1      -6.4753      2.00000
      2      -6.2531      2.00000
      3      -6.1342      2.00000
      4      -6.0244      2.00000
      5       0.4339      2.00000
      6       0.4664      2.00000
      7       0.6381      2.00000
      8       0.7383      2.00000
      9       0.8052      2.00000
     10       0.8938      2.00000
     11       1.0175      2.00000
     12       1.2009      2.00000
     13       1.2945      2.00000
     14       1.3570      2.00000
     15       1.4397      2.00000
     16       1.5008      2.00000
     17       1.6081      2.00000
     18       1.6557      2.00000
     19       1.8037      2.00000
     20       1.8873      2.00000
     21       1.9515      2.00000
     22       2.0077      2.00000
     23       2.0788      2.00000
     24       2.1157      2.00000
     25       2.1784      2.00000
     26       2.2902      2.00000
     27       2.3553      2.00000
     28       2.4069      2.00000
     29       2.4370      2.00000
     30       2.4515      2.00000
     31       2.5108      2.00000
     32       2.5934      2.00000
     33       2.6362      2.00000
     34       2.7117      2.00000
     35       2.7713      2.00000
     36       2.8097      2.00000
     37       2.8620      2.00000
     38       2.9157      2.00000
     39       2.9804      2.00000
     40       3.0212      2.00000
     41       3.0527      2.00000
     42       3.1400      2.00000
     43       3.1981      2.00000
     44       3.2786      2.00000
     45       3.4463      2.00000
     46       3.6039      2.00000
     47       3.7232      2.00000
     48       4.2420      2.00000
     49       5.0849      2.00000
     50       5.1644      2.00000
     51       5.4648      2.00000
     52       5.6092      2.00000
     53       5.7973      2.00000
     54       6.0401      2.00000
     55       6.3600      2.00000
     56       6.5045      2.00000
     57       7.9619      0.00000
     58       8.1021      0.00000
     59       8.7492      0.00000
     60       9.1660      0.00000
     61      10.9691      0.00000
     62      11.0721      0.00000
     63      11.3247      0.00000
     64      11.6723      0.00000
     65      11.7215      0.00000
     66      12.1008      0.00000
     67      12.4230      0.00000
     68      12.5076      0.00000

 k-point    94 :       0.0000   -0.3421    0.3421
  band No.  band energies     occupation 
      1      -6.4477      2.00000
      2      -6.2553      2.00000
      3      -6.1446      2.00000
      4      -6.0421      2.00000
      5       0.4326      2.00000
      6       0.4694      2.00000
      7       0.6362      2.00000
      8       0.7296      2.00000
      9       0.7944      2.00000
     10       0.8652      2.00000
     11       1.0390      2.00000
     12       1.2015      2.00000
     13       1.2815      2.00000
     14       1.3443      2.00000
     15       1.4419      2.00000
     16       1.5101      2.00000
     17       1.6091      2.00000
     18       1.6546      2.00000
     19       1.8236      2.00000
     20       1.8871      2.00000
     21       1.9712      2.00000
     22       2.0129      2.00000
     23       2.0750      2.00000
     24       2.1187      2.00000
     25       2.1872      2.00000
     26       2.2703      2.00000
     27       2.3504      2.00000
     28       2.4207      2.00000
     29       2.4413      2.00000
     30       2.4534      2.00000
     31       2.5227      2.00000
     32       2.5950      2.00000
     33       2.6304      2.00000
     34       2.6986      2.00000
     35       2.7602      2.00000
     36       2.8102      2.00000
     37       2.8715      2.00000
     38       2.9254      2.00000
     39       2.9726      2.00000
     40       3.0196      2.00000
     41       3.0427      2.00000
     42       3.1415      2.00000
     43       3.1993      2.00000
     44       3.2593      2.00000
     45       3.4780      2.00000
     46       3.5956      2.00000
     47       3.7641      2.00000
     48       4.2055      2.00000
     49       5.1118      2.00000
     50       5.1924      2.00000
     51       5.4915      2.00000
     52       5.5938      2.00000
     53       5.8012      2.00000
     54       6.0102      2.00000
     55       6.3425      2.00000
     56       6.4675      2.00000
     57       8.0604      0.00000
     58       8.1180      0.00000
     59       8.7887      0.00000
     60       9.1156      0.00000
     61      10.9181      0.00000
     62      11.0389      0.00000
     63      11.3526      0.00000
     64      11.5453      0.00000
     65      11.7276      0.00000
     66      12.0586      0.00000
     67      12.3966      0.00000
     68      12.4574      0.00000

 k-point    95 :       0.0000   -0.3684    0.3684
  band No.  band energies     occupation 
      1      -6.4208      2.00000
      2      -6.2553      2.00000
      3      -6.1542      2.00000
      4      -6.0617      2.00000
      5       0.4331      2.00000
      6       0.4756      2.00000
      7       0.6320      2.00000
      8       0.7188      2.00000
      9       0.7795      2.00000
     10       0.8407      2.00000
     11       1.0626      2.00000
     12       1.1996      2.00000
     13       1.2696      2.00000
     14       1.3373      2.00000
     15       1.4453      2.00000
     16       1.5141      2.00000
     17       1.6111      2.00000
     18       1.6543      2.00000
     19       1.8378      2.00000
     20       1.8948      2.00000
     21       1.9898      2.00000
     22       2.0206      2.00000
     23       2.0718      2.00000
     24       2.1195      2.00000
     25       2.1945      2.00000
     26       2.2518      2.00000
     27       2.3319      2.00000
     28       2.4369      2.00000
     29       2.4481      2.00000
     30       2.4565      2.00000
     31       2.5350      2.00000
     32       2.5951      2.00000
     33       2.6303      2.00000
     34       2.6853      2.00000
     35       2.7443      2.00000
     36       2.8135      2.00000
     37       2.8833      2.00000
     38       2.9296      2.00000
     39       2.9642      2.00000
     40       3.0115      2.00000
     41       3.0487      2.00000
     42       3.1414      2.00000
     43       3.1980      2.00000
     44       3.2407      2.00000
     45       3.5094      2.00000
     46       3.5874      2.00000
     47       3.8039      2.00000
     48       4.1708      2.00000
     49       5.1366      2.00000
     50       5.2179      2.00000
     51       5.5087      2.00000
     52       5.5791      2.00000
     53       5.7951      2.00000
     54       5.9947      2.00000
     55       6.3205      2.00000
     56       6.4357      2.00000
     57       8.1306      0.00000
     58       8.1845      0.00000
     59       8.8050      0.00000
     60       9.0645      0.00000
     61      10.8645      0.00000
     62      11.0123      0.00000
     63      11.3684      0.00000
     64      11.4411      0.00000
     65      11.7370      0.00000
     66      12.0238      0.00000
     67      12.3574      0.00000
     68      12.4088      0.00000

 k-point    96 :       0.0000   -0.3947    0.3947
  band No.  band energies     occupation 
      1      -6.3962      2.00000
      2      -6.2524      2.00000
      3      -6.1628      2.00000
      4      -6.0827      2.00000
      5       0.4348      2.00000
      6       0.4850      2.00000
      7       0.6254      2.00000
      8       0.7032      2.00000
      9       0.7649      2.00000
     10       0.8246      2.00000
     11       1.0820      2.00000
     12       1.1966      2.00000
     13       1.2590      2.00000
     14       1.3385      2.00000
     15       1.4485      2.00000
     16       1.5116      2.00000
     17       1.6139      2.00000
     18       1.6567      2.00000
     19       1.8431      2.00000
     20       1.9129      2.00000
     21       2.0036      2.00000
     22       2.0292      2.00000
     23       2.0720      2.00000
     24       2.1184      2.00000
     25       2.1954      2.00000
     26       2.2388      2.00000
     27       2.3092      2.00000
     28       2.4493      2.00000
     29       2.4564      2.00000
     30       2.4586      2.00000
     31       2.5475      2.00000
     32       2.5945      2.00000
     33       2.6376      2.00000
     34       2.6735      2.00000
     35       2.7257      2.00000
     36       2.8175      2.00000
     37       2.8933      2.00000
     38       2.9245      2.00000
     39       2.9613      2.00000
     40       3.0107      2.00000
     41       3.0548      2.00000
     42       3.1397      2.00000
     43       3.1935      2.00000
     44       3.2256      2.00000
     45       3.5376      2.00000
     46       3.5807      2.00000
     47       3.8410      2.00000
     48       4.1396      2.00000
     49       5.1632      2.00000
     50       5.2400      2.00000
     51       5.5095      2.00000
     52       5.5649      2.00000
     53       5.7860      2.00000
     54       5.9921      2.00000
     55       6.2933      2.00000
     56       6.4118      2.00000
     57       8.1932      0.00000
     58       8.2763      0.00000
     59       8.7960      0.00000
     60       9.0122      0.00000
     61      10.8233      0.00000
     62      10.9839      0.00000
     63      11.3280      0.00000
     64      11.4085      0.00000
     65      11.7472      0.00000
     66      11.9968      0.00000
     67      12.3033      0.00000
     68      12.3676      0.00000

 k-point    97 :       0.0000   -0.4211    0.4211
  band No.  band energies     occupation 
      1      -6.3753      2.00000
      2      -6.2455      2.00000
      3      -6.1706      2.00000
      4      -6.1044      2.00000
      5       0.4374      2.00000
      6       0.4974      2.00000
      7       0.6165      2.00000
      8       0.6819      2.00000
      9       0.7561      2.00000
     10       0.8147      2.00000
     11       1.0948      2.00000
     12       1.1932      2.00000
     13       1.2499      2.00000
     14       1.3485      2.00000
     15       1.4506      2.00000
     16       1.5037      2.00000
     17       1.6164      2.00000
     18       1.6619      2.00000
     19       1.8444      2.00000
     20       1.9344      2.00000
     21       2.0139      2.00000
     22       2.0354      2.00000
     23       2.0757      2.00000
     24       2.1164      2.00000
     25       2.1903      2.00000
     26       2.2294      2.00000
     27       2.2904      2.00000
     28       2.4393      2.00000
     29       2.4644      2.00000
     30       2.4770      2.00000
     31       2.5599      2.00000
     32       2.5951      2.00000
     33       2.6464      2.00000
     34       2.6645      2.00000
     35       2.7075      2.00000
     36       2.8214      2.00000
     37       2.8920      2.00000
     38       2.9237      2.00000
     39       2.9623      2.00000
     40       3.0144      2.00000
     41       3.0577      2.00000
     42       3.1370      2.00000
     43       3.1869      2.00000
     44       3.2155      2.00000
     45       3.5570      2.00000
     46       3.5799      2.00000
     47       3.8734      2.00000
     48       4.1132      2.00000
     49       5.1917      2.00000
     50       5.2593      2.00000
     51       5.4950      2.00000
     52       5.5477      2.00000
     53       5.7813      2.00000
     54       5.9986      2.00000
     55       6.2631      2.00000
     56       6.3958      2.00000
     57       8.2685      0.00000
     58       8.3660      0.00000
     59       8.7631      0.00000
     60       8.9577      0.00000
     61      10.7970      0.00000
     62      10.9540      0.00000
     63      11.2692      0.00000
     64      11.4116      0.00000
     65      11.7573      0.00000
     66      11.9781      0.00000
     67      12.2410      0.00000
     68      12.3385      0.00000

 k-point    98 :       0.0000   -0.4474    0.4474
  band No.  band energies     occupation 
      1      -6.3598      2.00000
      2      -6.2340      2.00000
      3      -6.1781      2.00000
      4      -6.1250      2.00000
      5       0.4401      2.00000
      6       0.5118      2.00000
      7       0.6059      2.00000
      8       0.6605      2.00000
      9       0.7526      2.00000
     10       0.8086      2.00000
     11       1.1019      2.00000
     12       1.1900      2.00000
     13       1.2430      2.00000
     14       1.3645      2.00000
     15       1.4502      2.00000
     16       1.4932      2.00000
     17       1.6178      2.00000
     18       1.6684      2.00000
     19       1.8447      2.00000
     20       1.9537      2.00000
     21       2.0196      2.00000
     22       2.0423      2.00000
     23       2.0788      2.00000
     24       2.1131      2.00000
     25       2.1858      2.00000
     26       2.2178      2.00000
     27       2.2808      2.00000
     28       2.4243      2.00000
     29       2.4710      2.00000
     30       2.4970      2.00000
     31       2.5702      2.00000
     32       2.5976      2.00000
     33       2.6448      2.00000
     34       2.6601      2.00000
     35       2.6973      2.00000
     36       2.8250      2.00000
     37       2.8806      2.00000
     38       2.9325      2.00000
     39       2.9635      2.00000
     40       3.0163      2.00000
     41       3.0581      2.00000
     42       3.1345      2.00000
     43       3.1817      2.00000
     44       3.2089      2.00000
     45       3.5601      2.00000
     46       3.5914      2.00000
     47       3.8990      2.00000
     48       4.0930      2.00000
     49       5.2199      2.00000
     50       5.2754      2.00000
     51       5.4743      2.00000
     52       5.5266      2.00000
     53       5.7815      2.00000
     54       6.0100      2.00000
     55       6.2344      2.00000
     56       6.3859      2.00000
     57       8.3531      0.00000
     58       8.4471      0.00000
     59       8.7107      0.00000
     60       8.9023      0.00000
     61      10.7834      0.00000
     62      10.9270      0.00000
     63      11.2296      0.00000
     64      11.4129      0.00000
     65      11.7663      0.00000
     66      11.9671      0.00000
     67      12.1842      0.00000
     68      12.3195      0.00000

 k-point    99 :       0.0000   -0.4737    0.4737
  band No.  band energies     occupation 
      1      -6.3507      2.00000
      2      -6.2187      2.00000
      3      -6.1871      2.00000
      4      -6.1412      2.00000
      5       0.4422      2.00000
      6       0.5256      2.00000
      7       0.5946      2.00000
      8       0.6452      2.00000
      9       0.7515      2.00000
     10       0.8052      2.00000
     11       1.1051      2.00000
     12       1.1876      2.00000
     13       1.2386      2.00000
     14       1.3811      2.00000
     15       1.4468      2.00000
     16       1.4843      2.00000
     17       1.6183      2.00000
     18       1.6737      2.00000
     19       1.8449      2.00000
     20       1.9667      2.00000
     21       2.0211      2.00000
     22       2.0521      2.00000
     23       2.0791      2.00000
     24       2.1081      2.00000
     25       2.1848      2.00000
     26       2.2063      2.00000
     27       2.2784      2.00000
     28       2.4117      2.00000
     29       2.4750      2.00000
     30       2.5141      2.00000
     31       2.5768      2.00000
     32       2.6018      2.00000
     33       2.6336      2.00000
     34       2.6560      2.00000
     35       2.6985      2.00000
     36       2.8276      2.00000
     37       2.8707      2.00000
     38       2.9412      2.00000
     39       2.9650      2.00000
     40       3.0134      2.00000
     41       3.0588      2.00000
     42       3.1330      2.00000
     43       3.1797      2.00000
     44       3.2044      2.00000
     45       3.5584      2.00000
     46       3.6024      2.00000
     47       3.9154      2.00000
     48       4.0803      2.00000
     49       5.2435      2.00000
     50       5.2855      2.00000
     51       5.4570      2.00000
     52       5.5074      2.00000
     53       5.7833      2.00000
     54       6.0213      2.00000
     55       6.2127      2.00000
     56       6.3805      2.00000
     57       8.4377      0.00000
     58       8.5097      0.00000
     59       8.6471      0.00000
     60       8.8540      0.00000
     61      10.7778      0.00000
     62      10.9083      0.00000
     63      11.2080      0.00000
     64      11.4121      0.00000
     65      11.7726      0.00000
     66      11.9621      0.00000
     67      12.1442      0.00000
     68      12.3059      0.00000

 k-point   100 :       0.0000   -0.5000    0.5000
  band No.  band energies     occupation 
      1      -6.3477      2.00000
      2      -6.2057      2.00000
      3      -6.1972      2.00000
      4      -6.1474      2.00000
      5       0.4430      2.00000
      6       0.5324      2.00000
      7       0.5887      2.00000
      8       0.6398      2.00000
      9       0.7513      2.00000
     10       0.8041      2.00000
     11       1.1059      2.00000
     12       1.1867      2.00000
     13       1.2372      2.00000
     14       1.3891      2.00000
     15       1.4438      2.00000
     16       1.4810      2.00000
     17       1.6185      2.00000
     18       1.6757      2.00000
     19       1.8450      2.00000
     20       1.9711      2.00000
     21       2.0214      2.00000
     22       2.0576      2.00000
     23       2.0781      2.00000
     24       2.1054      2.00000
     25       2.1849      2.00000
     26       2.2017      2.00000
     27       2.2783      2.00000
     28       2.4068      2.00000
     29       2.4763      2.00000
     30       2.5213      2.00000
     31       2.5788      2.00000
     32       2.6051      2.00000
     33       2.6260      2.00000
     34       2.6542      2.00000
     35       2.7005      2.00000
     36       2.8285      2.00000
     37       2.8670      2.00000
     38       2.9446      2.00000
     39       2.9660      2.00000
     40       3.0106      2.00000
     41       3.0595      2.00000
     42       3.1324      2.00000
     43       3.1794      2.00000
     44       3.2026      2.00000
     45       3.5576      2.00000
     46       3.6065      2.00000
     47       3.9211      2.00000
     48       4.0759      2.00000
     49       5.2540      2.00000
     50       5.2882      2.00000
     51       5.4505      2.00000
     52       5.4993      2.00000
     53       5.7841      2.00000
     54       6.0262      2.00000
     55       6.2044      2.00000
     56       6.3787      2.00000
     57       8.4893      0.00000
     58       8.5335      0.00000
     59       8.6048      0.00000
     60       8.8327      0.00000
     61      10.7764      0.00000
     62      10.9016      0.00000
     63      11.2013      0.00000
     64      11.4115      0.00000
     65      11.7750      0.00000
     66      11.9609      0.00000
     67      12.1299      0.00000
     68      12.3018      0.00000

 k-point   101 :      -0.5000    0.0000    0.5000
  band No.  band energies     occupation 
      1      -6.1896      2.00000
      2      -6.0752      2.00000
      3      -6.0173      2.00000
      4      -5.9738      2.00000
      5       0.6414      2.00000
      6       0.6888      2.00000
      7       0.7761      2.00000
      8       0.8220      2.00000
      9       0.8332      2.00000
     10       0.9290      2.00000
     11       1.1483      2.00000
     12       1.2168      2.00000
     13       1.3705      2.00000
     14       1.4307      2.00000
     15       1.5411      2.00000
     16       1.5888      2.00000
     17       1.7165      2.00000
     18       1.7245      2.00000
     19       1.8743      2.00000
     20       1.9114      2.00000
     21       1.9408      2.00000
     22       2.0309      2.00000
     23       2.0633      2.00000
     24       2.1328      2.00000
     25       2.1777      2.00000
     26       2.2317      2.00000
     27       2.2925      2.00000
     28       2.3411      2.00000
     29       2.4491      2.00000
     30       2.4791      2.00000
     31       2.5509      2.00000
     32       2.5923      2.00000
     33       2.6626      2.00000
     34       2.6791      2.00000
     35       2.6964      2.00000
     36       2.7183      2.00000
     37       2.8259      2.00000
     38       2.8939      2.00000
     39       2.9181      2.00000
     40       2.9948      2.00000
     41       3.0681      2.00000
     42       3.0883      2.00000
     43       3.1952      2.00000
     44       3.2420      2.00000
     45       3.2743      2.00000
     46       3.2931      2.00000
     47       3.6521      2.00000
     48       3.6699      2.00000
     49       4.6805      2.00000
     50       4.7195      2.00000
     51       4.7686      2.00000
     52       4.7857      2.00000
     53       5.2598      2.00000
     54       5.3530      2.00000
     55       5.7584      2.00000
     56       5.8447      2.00000
     57       9.1075      0.00000
     58       9.2901      0.00000
     59       9.5572      0.00000
     60       9.5954      0.00000
     61       9.8166      0.00000
     62      10.1433      0.00000
     63      11.1195      0.00000
     64      11.2096      0.00000
     65      11.3731      0.00000
     66      11.7933      0.00000
     67      12.1331      0.00000
     68      12.9327      0.00000

 k-point   102 :      -0.4737    0.0000    0.4737
  band No.  band energies     occupation 
      1      -6.1959      2.00000
      2      -6.0764      2.00000
      3      -6.0141      2.00000
      4      -5.9739      2.00000
      5       0.6403      2.00000
      6       0.6881      2.00000
      7       0.7740      2.00000
      8       0.8163      2.00000
      9       0.8428      2.00000
     10       0.9313      2.00000
     11       1.1455      2.00000
     12       1.2163      2.00000
     13       1.3693      2.00000
     14       1.4304      2.00000
     15       1.5310      2.00000
     16       1.6005      2.00000
     17       1.7020      2.00000
     18       1.7374      2.00000
     19       1.8726      2.00000
     20       1.9087      2.00000
     21       1.9366      2.00000
     22       2.0301      2.00000
     23       2.0644      2.00000
     24       2.1333      2.00000
     25       2.1852      2.00000
     26       2.2314      2.00000
     27       2.2967      2.00000
     28       2.3435      2.00000
     29       2.4387      2.00000
     30       2.4850      2.00000
     31       2.5436      2.00000
     32       2.5998      2.00000
     33       2.6445      2.00000
     34       2.6661      2.00000
     35       2.7129      2.00000
     36       2.7269      2.00000
     37       2.8273      2.00000
     38       2.8863      2.00000
     39       2.9192      2.00000
     40       2.9944      2.00000
     41       3.0573      2.00000
     42       3.0921      2.00000
     43       3.1752      2.00000
     44       3.2488      2.00000
     45       3.2826      2.00000
     46       3.3221      2.00000
     47       3.6061      2.00000
     48       3.7266      2.00000
     49       4.6290      2.00000
     50       4.6896      2.00000
     51       4.7888      2.00000
     52       4.8345      2.00000
     53       5.2539      2.00000
     54       5.3612      2.00000
     55       5.7670      2.00000
     56       5.8556      2.00000
     57       9.0463      0.00000
     58       9.3438      0.00000
     59       9.5023      0.00000
     60       9.6658      0.00000
     61       9.8261      0.00000
     62      10.1488      0.00000
     63      11.1092      0.00000
     64      11.1878      0.00000
     65      11.3902      0.00000
     66      11.8258      0.00000
     67      12.1009      0.00000
     68      12.9687      0.00000

 k-point   103 :      -0.4474    0.0000    0.4474
  band No.  band energies     occupation 
      1      -6.2135      2.00000
      2      -6.0796      2.00000
      3      -6.0062      2.00000
      4      -5.9738      2.00000
      5       0.6380      2.00000
      6       0.6843      2.00000
      7       0.7686      2.00000
      8       0.8106      2.00000
      9       0.8603      2.00000
     10       0.9369      2.00000
     11       1.1376      2.00000
     12       1.2157      2.00000
     13       1.3655      2.00000
     14       1.4281      2.00000
     15       1.5149      2.00000
     16       1.6206      2.00000
     17       1.6866      2.00000
     18       1.7478      2.00000
     19       1.8677      2.00000
     20       1.8993      2.00000
     21       1.9305      2.00000
     22       2.0266      2.00000
     23       2.0643      2.00000
     24       2.1390      2.00000
     25       2.2028      2.00000
     26       2.2326      2.00000
     27       2.3060      2.00000
     28       2.3489      2.00000
     29       2.4227      2.00000
     30       2.4902      2.00000
     31       2.5305      2.00000
     32       2.5964      2.00000
     33       2.6258      2.00000
     34       2.6553      2.00000
     35       2.7201      2.00000
     36       2.7494      2.00000
     37       2.8291      2.00000
     38       2.8712      2.00000
     39       2.9189      2.00000
     40       2.9954      2.00000
     41       3.0419      2.00000
     42       3.0756      2.00000
     43       3.1818      2.00000
     44       3.2458      2.00000
     45       3.2783      2.00000
     46       3.4025      2.00000
     47       3.5647      2.00000
     48       3.7999      2.00000
     49       4.5253      2.00000
     50       4.6795      2.00000
     51       4.8028      2.00000
     52       4.8938      2.00000
     53       5.2375      2.00000
     54       5.3907      2.00000
     55       5.7913      2.00000
     56       5.8859      2.00000
     57       8.9457      0.00000
     58       9.3468      0.00000
     59       9.5308      0.00000
     60       9.7580      0.00000
     61       9.8544      0.00000
     62      10.1645      0.00000
     63      11.0675      0.00000
     64      11.1572      0.00000
     65      11.4328      0.00000
     66      11.9014      0.00000
     67      12.0282      0.00000
     68      13.0566      0.00000

 k-point   104 :      -0.4211    0.0000    0.4211
  band No.  band energies     occupation 
      1      -6.2393      2.00000
      2      -6.0844      2.00000
      3      -5.9976      2.00000
      4      -5.9729      2.00000
      5       0.6365      2.00000
      6       0.6743      2.00000
      7       0.7624      2.00000
      8       0.8078      2.00000
      9       0.8815      2.00000
     10       0.9437      2.00000
     11       1.1267      2.00000
     12       1.2170      2.00000
     13       1.3587      2.00000
     14       1.4206      2.00000
     15       1.5020      2.00000
     16       1.6375      2.00000
     17       1.6758      2.00000
     18       1.7501      2.00000
     19       1.8584      2.00000
     20       1.8831      2.00000
     21       1.9331      2.00000
     22       2.0190      2.00000
     23       2.0621      2.00000
     24       2.1488      2.00000
     25       2.2245      2.00000
     26       2.2375      2.00000
     27       2.3133      2.00000
     28       2.3534      2.00000
     29       2.4161      2.00000
     30       2.4870      2.00000
     31       2.5201      2.00000
     32       2.5609      2.00000
     33       2.6271      2.00000
     34       2.6591      2.00000
     35       2.7192      2.00000
     36       2.7700      2.00000
     37       2.8231      2.00000
     38       2.8639      2.00000
     39       2.9147      2.00000
     40       2.9990      2.00000
     41       3.0239      2.00000
     42       3.0601      2.00000
     43       3.1995      2.00000
     44       3.2470      2.00000
     45       3.2720      2.00000
     46       3.4924      2.00000
     47       3.5408      2.00000
     48       3.8797      2.00000
     49       4.4197      2.00000
     50       4.6728      2.00000
     51       4.8089      2.00000
     52       4.9291      2.00000
     53       5.2161      2.00000
     54       5.4449      2.00000
     55       5.8285      2.00000
     56       5.9307      2.00000
     57       8.8470      0.00000
     58       9.2705      0.00000
     59       9.6405      0.00000
     60       9.8582      0.00000
     61       9.9027      0.00000
     62      10.1890      0.00000
     63      11.0027      0.00000
     64      11.1395      0.00000
     65      11.4963      0.00000
     66      11.8996      0.00000
     67      12.0365      0.00000
     68      13.1589      0.00000

 k-point   105 :      -0.3947    0.0000    0.3947
  band No.  band energies     occupation 
      1      -6.2708      2.00000
      2      -6.0905      2.00000
      3      -5.9921      2.00000
      4      -5.9693      2.00000
      5       0.6370      2.00000
      6       0.6572      2.00000
      7       0.7582      2.00000
      8       0.8071      2.00000
      9       0.9017      2.00000
     10       0.9508      2.00000
     11       1.1159      2.00000
     12       1.2216      2.00000
     13       1.3494      2.00000
     14       1.4063      2.00000
     15       1.4927      2.00000
     16       1.6466      2.00000
     17       1.6702      2.00000
     18       1.7456      2.00000
     19       1.8425      2.00000
     20       1.8673      2.00000
     21       1.9436      2.00000
     22       2.0081      2.00000
     23       2.0623      2.00000
     24       2.1550      2.00000
     25       2.2378      2.00000
     26       2.2501      2.00000
     27       2.3133      2.00000
     28       2.3591      2.00000
     29       2.4195      2.00000
     30       2.4791      2.00000
     31       2.5124      2.00000
     32       2.5311      2.00000
     33       2.6215      2.00000
     34       2.6761      2.00000
     35       2.7126      2.00000
     36       2.7819      2.00000
     37       2.8159      2.00000
     38       2.8672      2.00000
     39       2.9068      2.00000
     40       2.9924      2.00000
     41       3.0226      2.00000
     42       3.0540      2.00000
     43       3.2003      2.00000
     44       3.2485      2.00000
     45       3.2830      2.00000
     46       3.5074      2.00000
     47       3.6113      2.00000
     48       3.9634      2.00000
     49       4.3201      2.00000
     50       4.6669      2.00000
     51       4.7974      2.00000
     52       4.9505      2.00000
     53       5.1988      2.00000
     54       5.5150      2.00000
     55       5.8764      2.00000
     56       5.9845      2.00000
     57       8.7523      0.00000
     58       9.1907      0.00000
     59       9.7453      0.00000
     60       9.9529      0.00000
     61       9.9867      0.00000
     62      10.2203      0.00000
     63      10.9425      0.00000
     64      11.1243      0.00000
     65      11.5809      0.00000
     66      11.8162      0.00000
     67      12.1285      0.00000
     68      13.2401      0.00000

 k-point   106 :      -0.3684    0.0000    0.3684
  band No.  band energies     occupation 
      1      -6.3058      2.00000
      2      -6.0978      2.00000
      3      -5.9912      2.00000
      4      -5.9629      2.00000
      5       0.6343      2.00000
      6       0.6399      2.00000
      7       0.7561      2.00000
      8       0.8077      2.00000
      9       0.9125      2.00000
     10       0.9611      2.00000
     11       1.1084      2.00000
     12       1.2300      2.00000
     13       1.3393      2.00000
     14       1.3865      2.00000
     15       1.4863      2.00000
     16       1.6373      2.00000
     17       1.6762      2.00000
     18       1.7372      2.00000
     19       1.8213      2.00000
     20       1.8566      2.00000
     21       1.9478      2.00000
     22       2.0058      2.00000
     23       2.0651      2.00000
     24       2.1550      2.00000
     25       2.2277      2.00000
     26       2.2657      2.00000
     27       2.3169      2.00000
     28       2.3676      2.00000
     29       2.4187      2.00000
     30       2.4759      2.00000
     31       2.4979      2.00000
     32       2.5301      2.00000
     33       2.6173      2.00000
     34       2.6863      2.00000
     35       2.7097      2.00000
     36       2.7812      2.00000
     37       2.8230      2.00000
     38       2.8722      2.00000
     39       2.8975      2.00000
     40       2.9817      2.00000
     41       3.0335      2.00000
     42       3.0545      2.00000
     43       3.1949      2.00000
     44       3.2371      2.00000
     45       3.3120      2.00000
     46       3.4996      2.00000
     47       3.7210      2.00000
     48       4.0456      2.00000
     49       4.2344      2.00000
     50       4.6538      2.00000
     51       4.7693      2.00000
     52       4.9703      2.00000
     53       5.1938      2.00000
     54       5.5863      2.00000
     55       5.9348      2.00000
     56       6.0429      2.00000
     57       8.6523      0.00000
     58       9.1304      0.00000
     59       9.8223      0.00000
     60      10.0315      0.00000
     61      10.1108      0.00000
     62      10.2598      0.00000
     63      10.9031      0.00000
     64      11.1081      0.00000
     65      11.6798      0.00000
     66      11.7549      0.00000
     67      12.1985      0.00000
     68      13.2686      0.00000

 k-point   107 :      -0.3421    0.0000    0.3421
  band No.  band energies     occupation 
      1      -6.3431      2.00000
      2      -6.1059      2.00000
      3      -5.9931      2.00000
      4      -5.9561      2.00000
      5       0.6099      2.00000
      6       0.6425      2.00000
      7       0.7551      2.00000
      8       0.8098      2.00000
      9       0.9094      2.00000
     10       0.9750      2.00000
     11       1.1058      2.00000
     12       1.2406      2.00000
     13       1.3300      2.00000
     14       1.3641      2.00000
     15       1.4824      2.00000
     16       1.6159      2.00000
     17       1.6855      2.00000
     18       1.7287      2.00000
     19       1.7982      2.00000
     20       1.8503      2.00000
     21       1.9344      2.00000
     22       2.0200      2.00000
     23       2.0688      2.00000
     24       2.1506      2.00000
     25       2.2010      2.00000
     26       2.2674      2.00000
     27       2.3327      2.00000
     28       2.3710      2.00000
     29       2.4155      2.00000
     30       2.4692      2.00000
     31       2.5027      2.00000
     32       2.5441      2.00000
     33       2.6165      2.00000
     34       2.6818      2.00000
     35       2.7190      2.00000
     36       2.7777      2.00000
     37       2.8374      2.00000
     38       2.8781      2.00000
     39       2.8894      2.00000
     40       2.9772      2.00000
     41       3.0337      2.00000
     42       3.0694      2.00000
     43       3.1905      2.00000
     44       3.2249      2.00000
     45       3.3396      2.00000
     46       3.5014      2.00000
     47       3.8356      2.00000
     48       4.0879      2.00000
     49       4.2030      2.00000
     50       4.6235      2.00000
     51       4.7305      2.00000
     52       4.9996      2.00000
     53       5.2041      2.00000
     54       5.6479      2.00000
     55       6.0034      2.00000
     56       6.1028      2.00000
     57       8.5356      0.00000
     58       9.1058      0.00000
     59       9.8586      0.00000
     60      10.1046      0.00000
     61      10.2381      0.00000
     62      10.3238      0.00000
     63      10.8944      0.00000
     64      11.0928      0.00000
     65      11.6950      0.00000
     66      11.8276      0.00000
     67      12.2160      0.00000
     68      13.2295      0.00000

 k-point   108 :      -0.3158    0.0000    0.3158
  band No.  band energies     occupation 
      1      -6.3816      2.00000
      2      -6.1148      2.00000
      3      -5.9964      2.00000
      4      -5.9505      2.00000
      5       0.5851      2.00000
      6       0.6441      2.00000
      7       0.7535      2.00000
      8       0.8144      2.00000
      9       0.8967      2.00000
     10       0.9872      2.00000
     11       1.1072      2.00000
     12       1.2480      2.00000
     13       1.3209      2.00000
     14       1.3477      2.00000
     15       1.4807      2.00000
     16       1.5920      2.00000
     17       1.6886      2.00000
     18       1.7228      2.00000
     19       1.7746      2.00000
     20       1.8479      2.00000
     21       1.9155      2.00000
     22       2.0341      2.00000
     23       2.0719      2.00000
     24       2.1418      2.00000
     25       2.1692      2.00000
     26       2.2660      2.00000
     27       2.3421      2.00000
     28       2.3670      2.00000
     29       2.4190      2.00000
     30       2.4715      2.00000
     31       2.5146      2.00000
     32       2.5597      2.00000
     33       2.6213      2.00000
     34       2.6805      2.00000
     35       2.7249      2.00000
     36       2.7754      2.00000
     37       2.8534      2.00000
     38       2.8816      2.00000
     39       2.8912      2.00000
     40       2.9777      2.00000
     41       3.0269      2.00000
     42       3.0916      2.00000
     43       3.1842      2.00000
     44       3.2175      2.00000
     45       3.3647      2.00000
     46       3.5143      2.00000
     47       3.9484      2.00000
     48       4.0467      2.00000
     49       4.2744      2.00000
     50       4.5751      2.00000
     51       4.6829      2.00000
     52       5.0445      2.00000
     53       5.2300      2.00000
     54       5.6952      2.00000
     55       6.0804      2.00000
     56       6.1621      2.00000
     57       8.3973      0.00000
     58       9.1231      0.00000
     59       9.8434      0.00000
     60      10.1565      0.00000
     61      10.3491      0.00000
     62      10.4386      0.00000
     63      10.9148      0.00000
     64      11.0883      0.00000
     65      11.6944      0.00000
     66      11.9656      0.00000
     67      12.1640      0.00000
     68      13.1372      0.00000

 k-point   109 :      -0.2895    0.0000    0.2895
  band No.  band energies     occupation 
      1      -6.4202      2.00000
      2      -6.1241      2.00000
      3      -6.0005      2.00000
      4      -5.9463      2.00000
      5       0.5618      2.00000
      6       0.6427      2.00000
      7       0.7491      2.00000
      8       0.8224      2.00000
      9       0.8794      2.00000
     10       0.9962      2.00000
     11       1.1089      2.00000
     12       1.2454      2.00000
     13       1.3052      2.00000
     14       1.3498      2.00000
     15       1.4815      2.00000
     16       1.5705      2.00000
     17       1.6869      2.00000
     18       1.7154      2.00000
     19       1.7531      2.00000
     20       1.8443      2.00000
     21       1.9049      2.00000
     22       2.0362      2.00000
     23       2.0698      2.00000
     24       2.1140      2.00000
     25       2.1622      2.00000
     26       2.2654      2.00000
     27       2.3340      2.00000
     28       2.3662      2.00000
     29       2.4307      2.00000
     30       2.4833      2.00000
     31       2.5203      2.00000
     32       2.5715      2.00000
     33       2.6327      2.00000
     34       2.6873      2.00000
     35       2.7252      2.00000
     36       2.7747      2.00000
     37       2.8685      2.00000
     38       2.8763      2.00000
     39       2.9106      2.00000
     40       2.9806      2.00000
     41       3.0194      2.00000
     42       3.1143      2.00000
     43       3.1743      2.00000
     44       3.2140      2.00000
     45       3.3928      2.00000
     46       3.5379      2.00000
     47       3.9782      2.00000
     48       4.0769      2.00000
     49       4.3716      2.00000
     50       4.5159      2.00000
     51       4.6282      2.00000
     52       5.0965      2.00000
     53       5.2788      2.00000
     54       5.7286      2.00000
     55       6.1617      2.00000
     56       6.2198      2.00000
     57       8.2403      0.00000
     58       9.1764      0.00000
     59       9.7765      0.00000
     60      10.1830      0.00000
     61      10.4612      0.00000
     62      10.5797      0.00000
     63      10.9393      0.00000
     64      11.1201      0.00000
     65      11.7312      0.00000
     66      11.9900      0.00000
     67      12.1653      0.00000
     68      13.0178      0.00000

 k-point   110 :      -0.2632    0.0000    0.2632
  band No.  band energies     occupation 
      1      -6.4583      2.00000
      2      -6.1337      2.00000
      3      -6.0052      2.00000
      4      -5.9438      2.00000
      5       0.5411      2.00000
      6       0.6373      2.00000
      7       0.7401      2.00000
      8       0.8300      2.00000
      9       0.8646      2.00000
     10       1.0037      2.00000
     11       1.1069      2.00000
     12       1.2311      2.00000
     13       1.2893      2.00000
     14       1.3604      2.00000
     15       1.4880      2.00000
     16       1.5540      2.00000
     17       1.6842      2.00000
     18       1.7022      2.00000
     19       1.7384      2.00000
     20       1.8314      2.00000
     21       1.9118      2.00000
     22       2.0246      2.00000
     23       2.0583      2.00000
     24       2.0868      2.00000
     25       2.1672      2.00000
     26       2.2667      2.00000
     27       2.3174      2.00000
     28       2.3709      2.00000
     29       2.4481      2.00000
     30       2.4942      2.00000
     31       2.5180      2.00000
     32       2.5846      2.00000
     33       2.6430      2.00000
     34       2.7004      2.00000
     35       2.7234      2.00000
     36       2.7778      2.00000
     37       2.8690      2.00000
     38       2.8848      2.00000
     39       2.9325      2.00000
     40       2.9825      2.00000
     41       3.0145      2.00000
     42       3.1303      2.00000
     43       3.1691      2.00000
     44       3.2079      2.00000
     45       3.4254      2.00000
     46       3.5713      2.00000
     47       3.9437      2.00000
     48       4.1753      2.00000
     49       4.4495      2.00000
     50       4.4754      2.00000
     51       4.5767      2.00000
     52       5.1411      2.00000
     53       5.3622      2.00000
     54       5.7505      2.00000
     55       6.2417      2.00000
     56       6.2764      2.00000
     57       8.0702      0.00000
     58       9.2490      0.00000
     59       9.6761      0.00000
     60      10.1842      0.00000
     61      10.5783      0.00000
     62      10.7206      0.00000
     63      10.9469      0.00000
     64      11.2035      0.00000
     65      11.7809      0.00000
     66      11.8375      0.00000
     67      12.3286      0.00000
     68      12.8854      0.00000

 k-point   111 :      -0.2368    0.0000    0.2368
  band No.  band energies     occupation 
      1      -6.4950      2.00000
      2      -6.1431      2.00000
      3      -6.0101      2.00000
      4      -5.9427      2.00000
      5       0.5237      2.00000
      6       0.6285      2.00000
      7       0.7260      2.00000
      8       0.8202      2.00000
      9       0.8699      2.00000
     10       1.0116      2.00000
     11       1.0997      2.00000
     12       1.2106      2.00000
     13       1.2758      2.00000
     14       1.3641      2.00000
     15       1.5042      2.00000
     16       1.5441      2.00000
     17       1.6728      2.00000
     18       1.6933      2.00000
     19       1.7335      2.00000
     20       1.8134      2.00000
     21       1.9287      2.00000
     22       2.0005      2.00000
     23       2.0448      2.00000
     24       2.0729      2.00000
     25       2.1670      2.00000
     26       2.2673      2.00000
     27       2.3058      2.00000
     28       2.3774      2.00000
     29       2.4657      2.00000
     30       2.4958      2.00000
     31       2.5180      2.00000
     32       2.5995      2.00000
     33       2.6470      2.00000
     34       2.7147      2.00000
     35       2.7243      2.00000
     36       2.7860      2.00000
     37       2.8644      2.00000
     38       2.8995      2.00000
     39       2.9515      2.00000
     40       2.9803      2.00000
     41       3.0146      2.00000
     42       3.1297      2.00000
     43       3.1761      2.00000
     44       3.2017      2.00000
     45       3.4554      2.00000
     46       3.6075      2.00000
     47       3.9376      2.00000
     48       4.2376      2.00000
     49       4.3985      2.00000
     50       4.5262      2.00000
     51       4.5893      2.00000
     52       5.1821      2.00000
     53       5.4790      2.00000
     54       5.7636      2.00000
     55       6.3108      2.00000
     56       6.3378      2.00000
     57       7.8919      0.00000
     58       9.2924      0.00000
     59       9.5927      0.00000
     60      10.1557      0.00000
     61      10.6875      0.00000
     62      10.8362      0.00000
     63      10.9645      0.00000
     64      11.3007      0.00000
     65      11.6100      0.00000
     66      11.9357      0.00000
     67      12.5053      0.00000
     68      12.7548      0.00000

 k-point   112 :      -0.2105    0.0000    0.2105
  band No.  band energies     occupation 
      1      -6.5296      2.00000
      2      -6.1523      2.00000
      3      -6.0151      2.00000
      4      -5.9427      2.00000
      5       0.5099      2.00000
      6       0.6172      2.00000
      7       0.7077      2.00000
      8       0.7978      2.00000
      9       0.8898      2.00000
     10       1.0207      2.00000
     11       1.0866      2.00000
     12       1.1903      2.00000
     13       1.2621      2.00000
     14       1.3561      2.00000
     15       1.5234      2.00000
     16       1.5461      2.00000
     17       1.6525      2.00000
     18       1.6909      2.00000
     19       1.7391      2.00000
     20       1.7973      2.00000
     21       1.9383      2.00000
     22       1.9816      2.00000
     23       2.0360      2.00000
     24       2.0665      2.00000
     25       2.1605      2.00000
     26       2.2581      2.00000
     27       2.3083      2.00000
     28       2.3834      2.00000
     29       2.4673      2.00000
     30       2.5004      2.00000
     31       2.5253      2.00000
     32       2.6080      2.00000
     33       2.6485      2.00000
     34       2.7218      2.00000
     35       2.7356      2.00000
     36       2.7986      2.00000
     37       2.8607      2.00000
     38       2.9152      2.00000
     39       2.9654      2.00000
     40       2.9753      2.00000
     41       3.0182      2.00000
     42       3.1223      2.00000
     43       3.1699      2.00000
     44       3.2150      2.00000
     45       3.4767      2.00000
     46       3.6266      2.00000
     47       3.9798      2.00000
     48       4.2252      2.00000
     49       4.3521      2.00000
     50       4.5667      2.00000
     51       4.6657      2.00000
     52       5.2374      2.00000
     53       5.6179      2.00000
     54       5.7702      2.00000
     55       6.3630      2.00000
     56       6.4074      2.00000
     57       7.7098      0.00000
     58       9.2149      0.00000
     59       9.6151      0.00000
     60      10.0942      0.00000
     61      10.7641      0.00000
     62      10.8835      0.00000
     63      11.0162      0.00000
     64      11.3071      0.00000
     65      11.5730      0.00000
     66      12.0854      0.00000
     67      12.6144      0.00000
     68      12.7064      0.00000

 k-point   113 :      -0.1842    0.0000    0.1842
  band No.  band energies     occupation 
      1      -6.5617      2.00000
      2      -6.1609      2.00000
      3      -6.0199      2.00000
      4      -5.9437      2.00000
      5       0.4996      2.00000
      6       0.6049      2.00000
      7       0.6867      2.00000
      8       0.7733      2.00000
      9       0.9126      2.00000
     10       1.0300      2.00000
     11       1.0677      2.00000
     12       1.1753      2.00000
     13       1.2478      2.00000
     14       1.3400      2.00000
     15       1.5282      2.00000
     16       1.5677      2.00000
     17       1.6310      2.00000
     18       1.6911      2.00000
     19       1.7480      2.00000
     20       1.7889      2.00000
     21       1.9245      2.00000
     22       1.9862      2.00000
     23       2.0339      2.00000
     24       2.0661      2.00000
     25       2.1529      2.00000
     26       2.2434      2.00000
     27       2.3168      2.00000
     28       2.3888      2.00000
     29       2.4568      2.00000
     30       2.5052      2.00000
     31       2.5378      2.00000
     32       2.6065      2.00000
     33       2.6437      2.00000
     34       2.7359      2.00000
     35       2.7501      2.00000
     36       2.8140      2.00000
     37       2.8568      2.00000
     38       2.9319      2.00000
     39       2.9666      2.00000
     40       2.9778      2.00000
     41       3.0231      2.00000
     42       3.1164      2.00000
     43       3.1561      2.00000
     44       3.2384      2.00000
     45       3.4894      2.00000
     46       3.6206      2.00000
     47       4.0569      2.00000
     48       4.1699      2.00000
     49       4.3100      2.00000
     50       4.6513      2.00000
     51       4.7251      2.00000
     52       5.3223      2.00000
     53       5.7665      2.00000
     54       5.7756      2.00000
     55       6.4078      2.00000
     56       6.4741      2.00000
     57       7.5273      0.00000
     58       9.0510      0.00000
     59       9.6993      0.00000
     60      10.0034      0.00000
     61      10.7474      0.00000
     62      10.8477      0.00000
     63      11.0755      0.00000
     64      11.3347      0.00000
     65      11.6840      0.00000
     66      12.2288      0.00000
     67      12.5782      0.00000
     68      12.8331      0.00000

 k-point   114 :      -0.1579    0.0000    0.1579
  band No.  band energies     occupation 
      1      -6.5905      2.00000
      2      -6.1688      2.00000
      3      -6.0246      2.00000
      4      -5.9453      2.00000
      5       0.4926      2.00000
      6       0.5929      2.00000
      7       0.6645      2.00000
      8       0.7502      2.00000
      9       0.9328      2.00000
     10       1.0301      2.00000
     11       1.0537      2.00000
     12       1.1669      2.00000
     13       1.2351      2.00000
     14       1.3209      2.00000
     15       1.5290      2.00000
     16       1.5865      2.00000
     17       1.6106      2.00000
     18       1.6956      2.00000
     19       1.7512      2.00000
     20       1.7904      2.00000
     21       1.9110      2.00000
     22       1.9938      2.00000
     23       2.0395      2.00000
     24       2.0722      2.00000
     25       2.1498      2.00000
     26       2.2287      2.00000
     27       2.3221      2.00000
     28       2.3948      2.00000
     29       2.4478      2.00000
     30       2.5032      2.00000
     31       2.5472      2.00000
     32       2.6013      2.00000
     33       2.6260      2.00000
     34       2.7533      2.00000
     35       2.7701      2.00000
     36       2.8300      2.00000
     37       2.8539      2.00000
     38       2.9470      2.00000
     39       2.9606      2.00000
     40       2.9872      2.00000
     41       3.0298      2.00000
     42       3.1140      2.00000
     43       3.1445      2.00000
     44       3.2630      2.00000
     45       3.4948      2.00000
     46       3.6007      2.00000
     47       4.0798      2.00000
     48       4.1232      2.00000
     49       4.3281      2.00000
     50       4.7193      2.00000
     51       4.7912      2.00000
     52       5.4377      2.00000
     53       5.7743      2.00000
     54       5.9242      2.00000
     55       6.4498      2.00000
     56       6.5335      2.00000
     57       7.3480      0.00000
     58       8.8593      0.00000
     59       9.7549      0.00000
     60       9.9123      0.00000
     61      10.5514      0.00000
     62      10.8693      0.00000
     63      11.1658      0.00000
     64      11.4392      0.00000
     65      11.8074      0.00000
     66      12.2753      0.00000
     67      12.6833      0.00000
     68      12.9094      0.00000

 k-point   115 :      -0.1316    0.0000    0.1316
  band No.  band energies     occupation 
      1      -6.6158      2.00000
      2      -6.1757      2.00000
      3      -6.0288      2.00000
      4      -5.9471      2.00000
      5       0.4879      2.00000
      6       0.5822      2.00000
      7       0.6422      2.00000
      8       0.7317      2.00000
      9       0.9398      2.00000
     10       1.0157      2.00000
     11       1.0598      2.00000
     12       1.1628      2.00000
     13       1.2266      2.00000
     14       1.3020      2.00000
     15       1.5293      2.00000
     16       1.5843      2.00000
     17       1.6023      2.00000
     18       1.6988      2.00000
     19       1.7529      2.00000
     20       1.7925      2.00000
     21       1.9131      2.00000
     22       1.9985      2.00000
     23       2.0502      2.00000
     24       2.0831      2.00000
     25       2.1558      2.00000
     26       2.2162      2.00000
     27       2.3205      2.00000
     28       2.4021      2.00000
     29       2.4430      2.00000
     30       2.4971      2.00000
     31       2.5474      2.00000
     32       2.5867      2.00000
     33       2.6117      2.00000
     34       2.7605      2.00000
     35       2.7891      2.00000
     36       2.8448      2.00000
     37       2.8580      2.00000
     38       2.9495      2.00000
     39       2.9657      2.00000
     40       3.0003      2.00000
     41       3.0405      2.00000
     42       3.1152      2.00000
     43       3.1373      2.00000
     44       3.2871      2.00000
     45       3.4928      2.00000
     46       3.5774      2.00000
     47       4.0184      2.00000
     48       4.0824      2.00000
     49       4.4368      2.00000
     50       4.7342      2.00000
     51       4.8949      2.00000
     52       5.5685      2.00000
     53       5.7825      2.00000
     54       6.0717      2.00000
     55       6.4926      2.00000
     56       6.5834      2.00000
     57       7.1762      0.00000
     58       8.6596      0.00000
     59       9.6832      0.00000
     60       9.9023      0.00000
     61      10.3267      0.00000
     62      10.9213      0.00000
     63      11.2601      0.00000
     64      11.5528      0.00000
     65      11.9073      0.00000
     66      12.2650      0.00000
     67      12.8758      0.00000
     68      12.9909      0.00000

 k-point   116 :      -0.1053    0.0000    0.1053
  band No.  band energies     occupation 
      1      -6.6370      2.00000
      2      -6.1816      2.00000
      3      -6.0324      2.00000
      4      -5.9491      2.00000
      5       0.4850      2.00000
      6       0.5734      2.00000
      7       0.6211      2.00000
      8       0.7204      2.00000
      9       0.9193      2.00000
     10       1.0193      2.00000
     11       1.0689      2.00000
     12       1.1602      2.00000
     13       1.2229      2.00000
     14       1.2862      2.00000
     15       1.5273      2.00000
     16       1.5675      2.00000
     17       1.6054      2.00000
     18       1.6943      2.00000
     19       1.7534      2.00000
     20       1.7922      2.00000
     21       1.9311      2.00000
     22       2.0033      2.00000
     23       2.0616      2.00000
     24       2.0981      2.00000
     25       2.1713      2.00000
     26       2.2086      2.00000
     27       2.3131      2.00000
     28       2.4072      2.00000
     29       2.4412      2.00000
     30       2.4893      2.00000
     31       2.5377      2.00000
     32       2.5602      2.00000
     33       2.6116      2.00000
     34       2.7550      2.00000
     35       2.7967      2.00000
     36       2.8550      2.00000
     37       2.8714      2.00000
     38       2.9490      2.00000
     39       2.9755      2.00000
     40       3.0167      2.00000
     41       3.0586      2.00000
     42       3.1214      2.00000
     43       3.1345      2.00000
     44       3.3097      2.00000
     45       3.4819      2.00000
     46       3.5568      2.00000
     47       3.9524      2.00000
     48       4.0271      2.00000
     49       4.5713      2.00000
     50       4.7312      2.00000
     51       5.0043      2.00000
     52       5.6741      2.00000
     53       5.8261      2.00000
     54       6.1988      2.00000
     55       6.5419      2.00000
     56       6.6222      2.00000
     57       7.0171     -0.00000
     58       8.4633      0.00000
     59       9.5532      0.00000
     60       9.8887      0.00000
     61      10.1444      0.00000
     62      10.9898      0.00000
     63      11.3443      0.00000
     64      11.6540      0.00000
     65      11.9695      0.00000
     66      12.2762      0.00000
     67      12.9875      0.00000
     68      13.2077      0.00000

 k-point   117 :      -0.0789    0.0000    0.0789
  band No.  band energies     occupation 
      1      -6.6538      2.00000
      2      -6.1864      2.00000
      3      -6.0354      2.00000
      4      -5.9508      2.00000
      5       0.4830      2.00000
      6       0.5666      2.00000
      7       0.6025      2.00000
      8       0.7181      2.00000
      9       0.8828      2.00000
     10       1.0347      2.00000
     11       1.0765      2.00000
     12       1.1579      2.00000
     13       1.2205      2.00000
     14       1.2767      2.00000
     15       1.5202      2.00000
     16       1.5557      2.00000
     17       1.6083      2.00000
     18       1.6840      2.00000
     19       1.7495      2.00000
     20       1.7921      2.00000
     21       1.9540      2.00000
     22       2.0126      2.00000
     23       2.0690      2.00000
     24       2.1171      2.00000
     25       2.1913      2.00000
     26       2.2115      2.00000
     27       2.3031      2.00000
     28       2.3998      2.00000
     29       2.4423      2.00000
     30       2.4809      2.00000
     31       2.5149      2.00000
     32       2.5488      2.00000
     33       2.6123      2.00000
     34       2.7371      2.00000
     35       2.8029      2.00000
     36       2.8567      2.00000
     37       2.8844      2.00000
     38       2.9550      2.00000
     39       2.9832      2.00000
     40       3.0306      2.00000
     41       3.0791      2.00000
     42       3.1339      2.00000
     43       3.1420      2.00000
     44       3.3299      2.00000
     45       3.4603      2.00000
     46       3.5417      2.00000
     47       3.8932      2.00000
     48       3.9746      2.00000
     49       4.6937      2.00000
     50       4.7283      2.00000
     51       5.1062      2.00000
     52       5.7105      2.00000
     53       5.9367      2.00000
     54       6.2924      2.00000
     55       6.6006      2.00000
     56       6.6472      2.00000
     57       6.8803     -0.00000
     58       8.2822      0.00000
     59       9.4321      0.00000
     60       9.7769      0.00000
     61      10.0692      0.00000
     62      11.0607      0.00000
     63      11.4129      0.00000
     64      11.7335      0.00000
     65      12.0043      0.00000
     66      12.3173      0.00000
     67      13.0736      0.00000
     68      13.3887      0.00000

 k-point   118 :      -0.0526    0.0000    0.0526
  band No.  band energies     occupation 
      1      -6.6661      2.00000
      2      -6.1898      2.00000
      3      -6.0376      2.00000
      4      -5.9522      2.00000
      5       0.4818      2.00000
      6       0.5618      2.00000
      7       0.5878      2.00000
      8       0.7256      2.00000
      9       0.8436      2.00000
     10       1.0506      2.00000
     11       1.0816      2.00000
     12       1.1563      2.00000
     13       1.2159      2.00000
     14       1.2752      2.00000
     15       1.5085      2.00000
     16       1.5510      2.00000
     17       1.6121      2.00000
     18       1.6712      2.00000
     19       1.7450      2.00000
     20       1.7912      2.00000
     21       1.9690      2.00000
     22       2.0285      2.00000
     23       2.0748      2.00000
     24       2.1319      2.00000
     25       2.2096      2.00000
     26       2.2334      2.00000
     27       2.2926      2.00000
     28       2.3762      2.00000
     29       2.4384      2.00000
     30       2.4688      2.00000
     31       2.5027      2.00000
     32       2.5487      2.00000
     33       2.6104      2.00000
     34       2.7158      2.00000
     35       2.8088      2.00000
     36       2.8545      2.00000
     37       2.8911      2.00000
     38       2.9643      2.00000
     39       2.9887      2.00000
     40       3.0407      2.00000
     41       3.0890      2.00000
     42       3.1349      2.00000
     43       3.1829      2.00000
     44       3.3465      2.00000
     45       3.4295      2.00000
     46       3.5319      2.00000
     47       3.8459      2.00000
     48       3.9326      2.00000
     49       4.7100      2.00000
     50       4.8084      2.00000
     51       5.1911      2.00000
     52       5.7181      2.00000
     53       6.0585      2.00000
     54       6.3529      2.00000
     55       6.6262      2.00000
     56       6.6793      2.00000
     57       6.7862     -0.00000
     58       8.1308      0.00000
     59       9.3425      0.00000
     60       9.6279      0.00000
     61      10.0539      0.00000
     62      11.1191      0.00000
     63      11.4633      0.00000
     64      11.7870      0.00000
     65      12.0322      0.00000
     66      12.3683      0.00000
     67      13.1463      0.00000
     68      13.3826      0.00000

 k-point   119 :      -0.0263    0.0000    0.0263
  band No.  band energies     occupation 
      1      -6.6735      2.00000
      2      -6.1919      2.00000
      3      -6.0389      2.00000
      4      -5.9531      2.00000
      5       0.4811      2.00000
      6       0.5586      2.00000
      7       0.5785      2.00000
      8       0.7418      2.00000
      9       0.8074      2.00000
     10       1.0623      2.00000
     11       1.0843      2.00000
     12       1.1553      2.00000
     13       1.2106      2.00000
     14       1.2779      2.00000
     15       1.4984      2.00000
     16       1.5496      2.00000
     17       1.6165      2.00000
     18       1.6598      2.00000
     19       1.7421      2.00000
     20       1.7899      2.00000
     21       1.9750      2.00000
     22       2.0422      2.00000
     23       2.0810      2.00000
     24       2.1390      2.00000
     25       2.2312      2.00000
     26       2.2634      2.00000
     27       2.2823      2.00000
     28       2.3460      2.00000
     29       2.4177      2.00000
     30       2.4669      2.00000
     31       2.5015      2.00000
     32       2.5542      2.00000
     33       2.6059      2.00000
     34       2.6993      2.00000
     35       2.8129      2.00000
     36       2.8520      2.00000
     37       2.8937      2.00000
     38       2.9717      2.00000
     39       2.9921      2.00000
     40       3.0471      2.00000
     41       3.0920      2.00000
     42       3.1354      2.00000
     43       3.2293      2.00000
     44       3.3575      2.00000
     45       3.3951      2.00000
     46       3.5262      2.00000
     47       3.8150      2.00000
     48       3.9056      2.00000
     49       4.7047      2.00000
     50       4.8770      2.00000
     51       5.2484      2.00000
     52       5.7202      2.00000
     53       6.1472      2.00000
     54       6.3958      2.00000
     55       6.5809      2.00000
     56       6.7257      2.01389
     57       6.7539      0.03408
     58       8.0275      0.00000
     59       9.2946      0.00000
     60       9.5126      0.00000
     61      10.0498      0.00000
     62      11.1559      0.00000
     63      11.4937      0.00000
     64      11.8164      0.00000
     65      12.0559      0.00000
     66      12.4099      0.00000
     67      13.1931      0.00000
     68      13.3322      0.00000

 k-point   120 :       0.0000    0.0000    0.0000
  band No.  band energies     occupation 
      1      -6.6759      2.00000
      2      -6.1926      2.00000
      3      -6.0394      2.00000
      4      -5.9534      2.00000
      5       0.4808      2.00000
      6       0.5575      2.00000
      7       0.5753      2.00000
      8       0.7569      2.00000
      9       0.7855      2.00000
     10       1.0667      2.00000
     11       1.0850      2.00000
     12       1.1549      2.00000
     13       1.2083      2.00000
     14       1.2794      2.00000
     15       1.4945      2.00000
     16       1.5494      2.00000
     17       1.6190      2.00000
     18       1.6548      2.00000
     19       1.7412      2.00000
     20       1.7893      2.00000
     21       1.9765      2.00000
     22       2.0468      2.00000
     23       2.0842      2.00000
     24       2.1411      2.00000
     25       2.2471      2.00000
     26       2.2701      2.00000
     27       2.2849      2.00000
     28       2.3277      2.00000
     29       2.4055      2.00000
     30       2.4679      2.00000
     31       2.5015      2.00000
     32       2.5583      2.00000
     33       2.6028      2.00000
     34       2.6932      2.00000
     35       2.8143      2.00000
     36       2.8511      2.00000
     37       2.8944      2.00000
     38       2.9745      2.00000
     39       2.9934      2.00000
     40       3.0495      2.00000
     41       3.0926      2.00000
     42       3.1356      2.00000
     43       3.2536      2.00000
     44       3.3605      2.00000
     45       3.3766      2.00000
     46       3.5243      2.00000
     47       3.8043      2.00000
     48       3.8963      2.00000
     49       4.7026      2.00000
     50       4.9012      2.00000
     51       5.2688      2.00000
     52       5.7208      2.00000
     53       6.1790      2.00000
     54       6.4198      2.00000
     55       6.5472      2.00000
     56       6.7384      1.96792
     57       6.7548     -0.01076
     58       7.9903      0.00000
     59       9.2822      0.00000
     60       9.4677      0.00000
     61      10.0487      0.00000
     62      11.1683      0.00000
     63      11.5037      0.00000
     64      11.8258      0.00000
     65      12.0655      0.00000
     66      12.4262      0.00000
     67      13.2087      0.00000
     68      13.3115      0.00000

 k-point   121 :       0.0000    0.0000    0.0000
  band No.  band energies     occupation 
      1      -6.6759      2.00000
      2      -6.1926      2.00000
      3      -6.0394      2.00000
      4      -5.9534      2.00000
      5       0.4808      2.00000
      6       0.5575      2.00000
      7       0.5753      2.00000
      8       0.7569      2.00000
      9       0.7855      2.00000
     10       1.0667      2.00000
     11       1.0850      2.00000
     12       1.1549      2.00000
     13       1.2083      2.00000
     14       1.2794      2.00000
     15       1.4945      2.00000
     16       1.5494      2.00000
     17       1.6190      2.00000
     18       1.6548      2.00000
     19       1.7412      2.00000
     20       1.7893      2.00000
     21       1.9765      2.00000
     22       2.0468      2.00000
     23       2.0842      2.00000
     24       2.1411      2.00000
     25       2.2471      2.00000
     26       2.2701      2.00000
     27       2.2849      2.00000
     28       2.3277      2.00000
     29       2.4055      2.00000
     30       2.4679      2.00000
     31       2.5015      2.00000
     32       2.5583      2.00000
     33       2.6028      2.00000
     34       2.6932      2.00000
     35       2.8143      2.00000
     36       2.8511      2.00000
     37       2.8944      2.00000
     38       2.9745      2.00000
     39       2.9934      2.00000
     40       3.0495      2.00000
     41       3.0926      2.00000
     42       3.1356      2.00000
     43       3.2536      2.00000
     44       3.3605      2.00000
     45       3.3766      2.00000
     46       3.5243      2.00000
     47       3.8043      2.00000
     48       3.8963      2.00000
     49       4.7026      2.00000
     50       4.9012      2.00000
     51       5.2688      2.00000
     52       5.7208      2.00000
     53       6.1790      2.00000
     54       6.4198      2.00000
     55       6.5472      2.00000
     56       6.7384      1.96791
     57       6.7548     -0.01076
     58       7.9903      0.00000
     59       9.2822      0.00000
     60       9.4677      0.00000
     61      10.0487      0.00000
     62      11.1683      0.00000
     63      11.5037      0.00000
     64      11.8258      0.00000
     65      12.0655      0.00000
     66      12.4262      0.00000
     67      13.2087      0.00000
     68      13.3120      0.00000

 k-point   122 :       0.0263   -0.0263    0.0000
  band No.  band energies     occupation 
      1      -6.6723      2.00000
      2      -6.1919      2.00000
      3      -6.0397      2.00000
      4      -5.9535      2.00000
      5       0.4789      2.00000
      6       0.5555      2.00000
      7       0.5839      2.00000
      8       0.7245      2.00000
      9       0.8246      2.00000
     10       1.0623      2.00000
     11       1.0826      2.00000
     12       1.1535      2.00000
     13       1.2128      2.00000
     14       1.2809      2.00000
     15       1.4990      2.00000
     16       1.5485      2.00000
     17       1.6137      2.00000
     18       1.6632      2.00000
     19       1.7328      2.00000
     20       1.8014      2.00000
     21       1.9735      2.00000
     22       2.0449      2.00000
     23       2.0695      2.00000
     24       2.1306      2.00000
     25       2.2369      2.00000
     26       2.2779      2.00000
     27       2.2831      2.00000
     28       2.3354      2.00000
     29       2.4121      2.00000
     30       2.4686      2.00000
     31       2.5100      2.00000
     32       2.5521      2.00000
     33       2.6072      2.00000
     34       2.6973      2.00000
     35       2.8124      2.00000
     36       2.8503      2.00000
     37       2.8934      2.00000
     38       2.9710      2.00000
     39       2.9921      2.00000
     40       3.0466      2.00000
     41       3.0915      2.00000
     42       3.1310      2.00000
     43       3.2451      2.00000
     44       3.3546      2.00000
     45       3.3910      2.00000
     46       3.5301      2.00000
     47       3.7737      2.00000
     48       3.9435      2.00000
     49       4.7004      2.00000
     50       4.8940      2.00000
     51       5.2452      2.00000
     52       5.7171      2.00000
     53       6.1683      2.00000
     54       6.3562      2.00000
     55       6.6033      2.00000
     56       6.7230      2.00521
     57       6.7628     -0.04036
     58       8.0337      0.00000
     59       9.2757      0.00000
     60       9.4909      0.00000
     61      10.0717      0.00000
     62      11.1584      0.00000
     63      11.4869      0.00000
     64      11.8141      0.00000
     65      12.0388      0.00000
     66      12.3924      0.00000
     67      13.1942      0.00000
     68      13.3398      0.00000

 k-point   123 :       0.0526   -0.0526    0.0000
  band No.  band energies     occupation 
      1      -6.6616      2.00000
      2      -6.1900      2.00000
      3      -6.0405      2.00000
      4      -5.9540      2.00000
      5       0.4743      2.00000
      6       0.5539      2.00000
      7       0.6020      2.00000
      8       0.6935      2.00000
      9       0.8751      2.00000
     10       1.0518      2.00000
     11       1.0741      2.00000
     12       1.1515      2.00000
     13       1.2263      2.00000
     14       1.2842      2.00000
     15       1.5092      2.00000
     16       1.5460      2.00000
     17       1.6073      2.00000
     18       1.6761      2.00000
     19       1.7250      2.00000
     20       1.8244      2.00000
     21       1.9631      2.00000
     22       2.0154      2.00000
     23       2.0591      2.00000
     24       2.1048      2.00000
     25       2.2227      2.00000
     26       2.2735      2.00000
     27       2.2891      2.00000
     28       2.3585      2.00000
     29       2.4215      2.00000
     30       2.4669      2.00000
     31       2.5233      2.00000
     32       2.5535      2.00000
     33       2.6155      2.00000
     34       2.7084      2.00000
     35       2.8047      2.00000
     36       2.8493      2.00000
     37       2.8906      2.00000
     38       2.9615      2.00000
     39       2.9878      2.00000
     40       3.0384      2.00000
     41       3.0867      2.00000
     42       3.1190      2.00000
     43       3.2312      2.00000
     44       3.3394      2.00000
     45       3.4244      2.00000
     46       3.5443      2.00000
     47       3.7316      2.00000
     48       4.0325      2.00000
     49       4.6888      2.00000
     50       4.8775      2.00000
     51       5.1839      2.00000
     52       5.7040      2.00000
     53       6.1193      2.00000
     54       6.2679      2.00000
     55       6.6242      2.00000
     56       6.7135      2.00004
     57       6.8197     -0.00000
     58       8.1530      0.00000
     59       9.2571      0.00000
     60       9.5569      0.00000
     61      10.1362      0.00000
     62      11.1326      0.00000
     63      11.4373      0.00000
     64      11.7764      0.00000
     65      11.9695      0.00000
     66      12.2964      0.00000
     67      13.1411      0.00000
     68      13.3997      0.00000

 k-point   124 :       0.0789   -0.0789    0.0000
  band No.  band energies     occupation 
      1      -6.6439      2.00000
      2      -6.1868      2.00000
      3      -6.0419      2.00000
      4      -5.9548      2.00000
      5       0.4692      2.00000
      6       0.5545      2.00000
      7       0.6188      2.00000
      8       0.6831      2.00000
      9       0.9172      2.00000
     10       1.0290      2.00000
     11       1.0744      2.00000
     12       1.1517      2.00000
     13       1.2453      2.00000
     14       1.2882      2.00000
     15       1.5166      2.00000
     16       1.5403      2.00000
     17       1.6120      2.00000
     18       1.6774      2.00000
     19       1.7371      2.00000
     20       1.8482      2.00000
     21       1.9329      2.00000
     22       1.9791      2.00000
     23       2.0541      2.00000
     24       2.0787      2.00000
     25       2.2086      2.00000
     26       2.2627      2.00000
     27       2.3008      2.00000
     28       2.3843      2.00000
     29       2.4279      2.00000
     30       2.4549      2.00000
     31       2.5279      2.00000
     32       2.5777      2.00000
     33       2.6266      2.00000
     34       2.7228      2.00000
     35       2.7903      2.00000
     36       2.8486      2.00000
     37       2.8864      2.00000
     38       2.9480      2.00000
     39       2.9799      2.00000
     40       3.0276      2.00000
     41       3.0738      2.00000
     42       3.1077      2.00000
     43       3.2212      2.00000
     44       3.3200      2.00000
     45       3.4649      2.00000
     46       3.5612      2.00000
     47       3.6981      2.00000
     48       4.1354      2.00000
     49       4.6565      2.00000
     50       4.8624      2.00000
     51       5.1093      2.00000
     52       5.6709      2.00000
     53       6.0254      2.00000
     54       6.2037      2.00000
     55       6.5518      2.00000
     56       6.7114      2.00001
     57       6.9620     -0.00000
     58       8.3250      0.00000
     59       9.2303      0.00000
     60       9.6512      0.00000
     61      10.2321      0.00000
     62      11.1016      0.00000
     63      11.3575      0.00000
     64      11.7066      0.00000
     65      11.8779      0.00000
     66      12.1553      0.00000
     67      13.0234      0.00000
     68      13.4201      0.00000

 k-point   125 :       0.1053   -0.1053    0.0000
  band No.  band energies     occupation 
      1      -6.6198      2.00000
      2      -6.1823      2.00000
      3      -6.0436      2.00000
      4      -5.9559      2.00000
      5       0.4652      2.00000
      6       0.5572      2.00000
      7       0.6265      2.00000
      8       0.6984      2.00000
      9       0.9394      2.00000
     10       0.9964      2.00000
     11       1.0936      2.00000
     12       1.1578      2.00000
     13       1.2601      2.00000
     14       1.2972      2.00000
     15       1.5160      2.00000
     16       1.5274      2.00000
     17       1.6335      2.00000
     18       1.6744      2.00000
     19       1.7625      2.00000
     20       1.8621      2.00000
     21       1.8892      2.00000
     22       1.9613      2.00000
     23       2.0261      2.00000
     24       2.0745      2.00000
     25       2.1929      2.00000
     26       2.2538      2.00000
     27       2.3144      2.00000
     28       2.4001      2.00000
     29       2.4328      2.00000
     30       2.4417      2.00000
     31       2.5372      2.00000
     32       2.5973      2.00000
     33       2.6433      2.00000
     34       2.7343      2.00000
     35       2.7736      2.00000
     36       2.8454      2.00000
     37       2.8814      2.00000
     38       2.9330      2.00000
     39       2.9698      2.00000
     40       3.0187      2.00000
     41       3.0538      2.00000
     42       3.1015      2.00000
     43       3.2124      2.00000
     44       3.3002      2.00000
     45       3.5064      2.00000
     46       3.5776      2.00000
     47       3.6766      2.00000
     48       4.2368      2.00000
     49       4.6023      2.00000
     50       4.8410      2.00000
     51       5.0579      2.00000
     52       5.5961      2.00000
     53       5.9419      2.00000
     54       6.1373      2.00000
     55       6.4587      2.00000
     56       6.6976      2.00000
     57       7.1424      0.00000
     58       8.5277      0.00000
     59       9.2005      0.00000
     60       9.7480      0.00000
     61      10.3474      0.00000
     62      11.0787      0.00000
     63      11.2513      0.00000
     64      11.5993      0.00000
     65      11.7794      0.00000
     66      11.9988      0.00000
     67      12.8252      0.00000
     68      13.3233      0.00000

 k-point   126 :       0.1316   -0.1316    0.0000
  band No.  band energies     occupation 
      1      -6.5898      2.00000
      2      -6.1768      2.00000
      3      -6.0455      2.00000
      4      -5.9573      2.00000
      5       0.4638      2.00000
      6       0.5618      2.00000
      7       0.6341      2.00000
      8       0.7241      2.00000
      9       0.9311      2.00000
     10       0.9775      2.00000
     11       1.1172      2.00000
     12       1.1771      2.00000
     13       1.2629      2.00000
     14       1.3149      2.00000
     15       1.5020      2.00000
     16       1.5178      2.00000
     17       1.6574      2.00000
     18       1.6814      2.00000
     19       1.7886      2.00000
     20       1.8275      2.00000
     21       1.8922      2.00000
     22       1.9469      2.00000
     23       1.9968      2.00000
     24       2.0764      2.00000
     25       2.1745      2.00000
     26       2.2487      2.00000
     27       2.3267      2.00000
     28       2.3975      2.00000
     29       2.4344      2.00000
     30       2.4470      2.00000
     31       2.5487      2.00000
     32       2.6089      2.00000
     33       2.6596      2.00000
     34       2.7335      2.00000
     35       2.7650      2.00000
     36       2.8378      2.00000
     37       2.8734      2.00000
     38       2.9195      2.00000
     39       2.9597      2.00000
     40       3.0158      2.00000
     41       3.0338      2.00000
     42       3.0970      2.00000
     43       3.2004      2.00000
     44       3.2818      2.00000
     45       3.5353      2.00000
     46       3.6013      2.00000
     47       3.6701      2.00000
     48       4.3069      2.00000
     49       4.5538      2.00000
     50       4.7881      2.00000
     51       5.0632      2.00000
     52       5.4771      2.00000
     53       5.8954      2.00000
     54       6.0515      2.00000
     55       6.3703      2.00000
     56       6.6766      2.00000
     57       7.3381      0.00000
     58       8.7437      0.00000
     59       9.1720      0.00000
     60       9.8191      0.00000
     61      10.4654      0.00000
     62      11.0502      0.00000
     63      11.1419      0.00000
     64      11.4592      0.00000
     65      11.6899      0.00000
     66      11.8617      0.00000
     67      12.5876      0.00000
     68      13.2053      0.00000

 k-point   127 :       0.1579   -0.1579    0.0000
  band No.  band energies     occupation 
      1      -6.5546      2.00000
      2      -6.1702      2.00000
      3      -6.0473      2.00000
      4      -5.9591      2.00000
      5       0.4664      2.00000
      6       0.5676      2.00000
      7       0.6477      2.00000
      8       0.7419      2.00000
      9       0.9042      2.00000
     10       0.9825      2.00000
     11       1.1295      2.00000
     12       1.2101      2.00000
     13       1.2621      2.00000
     14       1.3324      2.00000
     15       1.4739      2.00000
     16       1.5213      2.00000
     17       1.6662      2.00000
     18       1.7044      2.00000
     19       1.7880      2.00000
     20       1.8145      2.00000
     21       1.8958      2.00000
     22       1.9327      2.00000
     23       1.9837      2.00000
     24       2.0794      2.00000
     25       2.1544      2.00000
     26       2.2460      2.00000
     27       2.3325      2.00000
     28       2.3935      2.00000
     29       2.4323      2.00000
     30       2.4626      2.00000
     31       2.5578      2.00000
     32       2.6181      2.00000
     33       2.6656      2.00000
     34       2.7249      2.00000
     35       2.7677      2.00000
     36       2.8257      2.00000
     37       2.8592      2.00000
     38       2.9096      2.00000
     39       2.9488      2.00000
     40       3.0073      2.00000
     41       3.0319      2.00000
     42       3.0919      2.00000
     43       3.1837      2.00000
     44       3.2663      2.00000
     45       3.5366      2.00000
     46       3.6437      2.00000
     47       3.6793      2.00000
     48       4.2977      2.00000
     49       4.5600      2.00000
     50       4.7172      2.00000
     51       5.1026      2.00000
     52       5.3494      2.00000
     53       5.8541      2.00000
     54       5.9645      2.00000
     55       6.2969      2.00000
     56       6.6503      2.00000
     57       7.5360      0.00000
     58       8.9547      0.00000
     59       9.1523      0.00000
     60       9.8484      0.00000
     61      10.5537      0.00000
     62      10.9154      0.00000
     63      11.1108      0.00000
     64      11.3199      0.00000
     65      11.6350      0.00000
     66      11.7698      0.00000
     67      12.3628      0.00000
     68      13.0605      0.00000

 k-point   128 :       0.1842   -0.1842    0.0000
  band No.  band energies     occupation 
      1      -6.5152      2.00000
      2      -6.1627      2.00000
      3      -6.0488      2.00000
      4      -5.9612      2.00000
      5       0.4729      2.00000
      6       0.5743      2.00000
      7       0.6660      2.00000
      8       0.7356      2.00000
      9       0.8947      2.00000
     10       0.9983      2.00000
     11       1.1333      2.00000
     12       1.2282      2.00000
     13       1.2796      2.00000
     14       1.3451      2.00000
     15       1.4420      2.00000
     16       1.5325      2.00000
     17       1.6719      2.00000
     18       1.7211      2.00000
     19       1.7614      2.00000
     20       1.8272      2.00000
     21       1.8956      2.00000
     22       1.9195      2.00000
     23       1.9905      2.00000
     24       2.0841      2.00000
     25       2.1342      2.00000
     26       2.2431      2.00000
     27       2.3340      2.00000
     28       2.3952      2.00000
     29       2.4272      2.00000
     30       2.4807      2.00000
     31       2.5554      2.00000
     32       2.6295      2.00000
     33       2.6632      2.00000
     34       2.7194      2.00000
     35       2.7751      2.00000
     36       2.8106      2.00000
     37       2.8421      2.00000
     38       2.9012      2.00000
     39       2.9355      2.00000
     40       2.9917      2.00000
     41       3.0448      2.00000
     42       3.0870      2.00000
     43       3.1655      2.00000
     44       3.2549      2.00000
     45       3.5238      2.00000
     46       3.6667      2.00000
     47       3.7223      2.00000
     48       4.2330      2.00000
     49       4.5810      2.00000
     50       4.6703      2.00000
     51       5.0994      2.00000
     52       5.2786      2.00000
     53       5.7744      2.00000
     54       5.9241      2.00000
     55       6.2389      2.00000
     56       6.6189      2.00000
     57       7.7244      0.00000
     58       9.0780      0.00000
     59       9.2133      0.00000
     60       9.8412      0.00000
     61      10.5612      0.00000
     62      10.7406      0.00000
     63      11.0426      0.00000
     64      11.2495      0.00000
     65      11.5815      0.00000
     66      11.7959      0.00000
     67      12.1867      0.00000
     68      12.9074      0.00000

 k-point   129 :       0.2105   -0.2105    0.0000
  band No.  band energies     occupation 
      1      -6.4727      2.00000
      2      -6.1545      2.00000
      3      -6.0499      2.00000
      4      -5.9635      2.00000
      5       0.4807      2.00000
      6       0.5833      2.00000
      7       0.6717      2.00000
      8       0.7219      2.00000
      9       0.9079      2.00000
     10       1.0210      2.00000
     11       1.1320      2.00000
     12       1.2221      2.00000
     13       1.3174      2.00000
     14       1.3567      2.00000
     15       1.4123      2.00000
     16       1.5437      2.00000
     17       1.6798      2.00000
     18       1.7239      2.00000
     19       1.7391      2.00000
     20       1.8337      2.00000
     21       1.8958      2.00000
     22       1.9180      2.00000
     23       2.0049      2.00000
     24       2.0904      2.00000
     25       2.1169      2.00000
     26       2.2379      2.00000
     27       2.3360      2.00000
     28       2.3953      2.00000
     29       2.4269      2.00000
     30       2.4956      2.00000
     31       2.5368      2.00000
     32       2.6430      2.00000
     33       2.6615      2.00000
     34       2.7194      2.00000
     35       2.7756      2.00000
     36       2.7983      2.00000
     37       2.8280      2.00000
     38       2.8914      2.00000
     39       2.9225      2.00000
     40       2.9801      2.00000
     41       3.0458      2.00000
     42       3.0883      2.00000
     43       3.1506      2.00000
     44       3.2503      2.00000
     45       3.5062      2.00000
     46       3.6643      2.00000
     47       3.7835      2.00000
     48       4.1676      2.00000
     49       4.5380      2.00000
     50       4.6855      2.00000
     51       5.0246      2.00000
     52       5.2698      2.00000
     53       5.7067      2.00000
     54       5.9104      2.00000
     55       6.1944      2.00000
     56       6.5824      2.00000
     57       7.8919      0.00000
     58       9.0752      0.00000
     59       9.3786      0.00000
     60       9.8144      0.00000
     61      10.4293      0.00000
     62      10.6230      0.00000
     63      10.9317      0.00000
     64      11.2129      0.00000
     65      11.5227      0.00000
     66      11.9286      0.00000
     67      12.0984      0.00000
     68      12.7680      0.00000

 k-point   130 :       0.2368   -0.2368    0.0000
  band No.  band energies     occupation 
      1      -6.4283      2.00000
      2      -6.1457      2.00000
      3      -6.0504      2.00000
      4      -5.9660      2.00000
      5       0.4844      2.00000
      6       0.5976      2.00000
      7       0.6366      2.00000
      8       0.7453      2.00000
      9       0.9307      2.00000
     10       1.0447      2.00000
     11       1.1293      2.00000
     12       1.2092      2.00000
     13       1.3409      2.00000
     14       1.3782      2.00000
     15       1.3987      2.00000
     16       1.5406      2.00000
     17       1.6917      2.00000
     18       1.7075      2.00000
     19       1.7392      2.00000
     20       1.8366      2.00000
     21       1.8875      2.00000
     22       1.9329      2.00000
     23       2.0162      2.00000
     24       2.0925      2.00000
     25       2.1113      2.00000
     26       2.2294      2.00000
     27       2.3375      2.00000
     28       2.3909      2.00000
     29       2.4360      2.00000
     30       2.4969      2.00000
     31       2.5176      2.00000
     32       2.6404      2.00000
     33       2.6710      2.00000
     34       2.7259      2.00000
     35       2.7652      2.00000
     36       2.7876      2.00000
     37       2.8232      2.00000
     38       2.8771      2.00000
     39       2.9146      2.00000
     40       2.9739      2.00000
     41       3.0339      2.00000
     42       3.0882      2.00000
     43       3.1422      2.00000
     44       3.2548      2.00000
     45       3.4886      2.00000
     46       3.6429      2.00000
     47       3.8374      2.00000
     48       4.1274      2.00000
     49       4.4820      2.00000
     50       4.6851      2.00000
     51       4.9739      2.00000
     52       5.2191      2.00000
     53       5.7020      2.00000
     54       5.9000      2.00000
     55       6.1629      2.00000
     56       6.5396      2.00000
     57       8.0278      0.00000
     58       9.0624      0.00000
     59       9.5086      0.00000
     60       9.7837      0.00000
     61      10.2305      0.00000
     62      10.5448      0.00000
     63      10.8423      0.00000
     64      11.1468      0.00000
     65      11.5131      0.00000
     66      11.9423      0.00000
     67      12.2202      0.00000
     68      12.6600      0.00000

 k-point   131 :       0.2632   -0.2632    0.0000
  band No.  band energies     occupation 
      1      -6.3833      2.00000
      2      -6.1363      2.00000
      3      -6.0501      2.00000
      4      -5.9686      2.00000
      5       0.4799      2.00000
      6       0.5830      2.00000
      7       0.6294      2.00000
      8       0.7835      2.00000
      9       0.9542      2.00000
     10       1.0600      2.00000
     11       1.1315      2.00000
     12       1.1963      2.00000
     13       1.3301      2.00000
     14       1.4065      2.00000
     15       1.4231      2.00000
     16       1.5163      2.00000
     17       1.6901      2.00000
     18       1.7183      2.00000
     19       1.7449      2.00000
     20       1.8362      2.00000
     21       1.8836      2.00000
     22       1.9437      2.00000
     23       2.0213      2.00000
     24       2.0895      2.00000
     25       2.1207      2.00000
     26       2.2178      2.00000
     27       2.3369      2.00000
     28       2.3840      2.00000
     29       2.4464      2.00000
     30       2.4751      2.00000
     31       2.5204      2.00000
     32       2.6230      2.00000
     33       2.6831      2.00000
     34       2.7349      2.00000
     35       2.7549      2.00000
     36       2.7737      2.00000
     37       2.8217      2.00000
     38       2.8625      2.00000
     39       2.9102      2.00000
     40       2.9736      2.00000
     41       3.0222      2.00000
     42       3.0782      2.00000
     43       3.1373      2.00000
     44       3.2632      2.00000
     45       3.4768      2.00000
     46       3.6025      2.00000
     47       3.8735      2.00000
     48       4.1173      2.00000
     49       4.4313      2.00000
     50       4.6501      2.00000
     51       4.9702      2.00000
     52       5.1427      2.00000
     53       5.7278      2.00000
     54       5.8937      2.00000
     55       6.1428      2.00000
     56       6.4897      2.00000
     57       8.1246      0.00000
     58       9.0522      0.00000
     59       9.5636      0.00000
     60       9.7463      0.00000
     61      10.0483      0.00000
     62      10.4809      0.00000
     63      10.8024      0.00000
     64      11.0894      0.00000
     65      11.5338      0.00000
     66      11.9070      0.00000
     67      12.3516      0.00000
     68      12.6226      0.00000

 k-point   132 :       0.2895   -0.2895    0.0000
  band No.  band energies     occupation 
      1      -6.3393      2.00000
      2      -6.1264      2.00000
      3      -6.0491      2.00000
      4      -5.9712      2.00000
      5       0.4669      2.00000
      6       0.5390      2.00000
      7       0.6628      2.00000
      8       0.8267      2.00000
      9       0.9728      2.00000
     10       1.0633      2.00000
     11       1.1388      2.00000
     12       1.1915      2.00000
     13       1.3128      2.00000
     14       1.4213      2.00000
     15       1.4628      2.00000
     16       1.4909      2.00000
     17       1.6866      2.00000
     18       1.7419      2.00000
     19       1.7524      2.00000
     20       1.8353      2.00000
     21       1.8867      2.00000
     22       1.9455      2.00000
     23       2.0227      2.00000
     24       2.0890      2.00000
     25       2.1332      2.00000
     26       2.2058      2.00000
     27       2.3340      2.00000
     28       2.3720      2.00000
     29       2.4423      2.00000
     30       2.4655      2.00000
     31       2.5291      2.00000
     32       2.5987      2.00000
     33       2.6906      2.00000
     34       2.7344      2.00000
     35       2.7498      2.00000
     36       2.7635      2.00000
     37       2.8101      2.00000
     38       2.8598      2.00000
     39       2.9054      2.00000
     40       2.9776      2.00000
     41       3.0169      2.00000
     42       3.0639      2.00000
     43       3.1311      2.00000
     44       3.2634      2.00000
     45       3.4721      2.00000
     46       3.5562      2.00000
     47       3.8922      2.00000
     48       4.1174      2.00000
     49       4.3895      2.00000
     50       4.6041      2.00000
     51       4.9758      2.00000
     52       5.1089      2.00000
     53       5.7342      2.00000
     54       5.8977      2.00000
     55       6.1301      2.00000
     56       6.4326      2.00000
     57       8.1801      0.00000
     58       9.0448      0.00000
     59       9.5365      0.00000
     60       9.6650      0.00000
     61       9.9306      0.00000
     62      10.4438      0.00000
     63      10.8214      0.00000
     64      11.0845      0.00000
     65      11.5604      0.00000
     66      11.8831      0.00000
     67      12.3471      0.00000
     68      12.6589      0.00000

 k-point   133 :       0.3158   -0.3158    0.0000
  band No.  band energies     occupation 
      1      -6.2980      2.00000
      2      -6.1158      2.00000
      3      -6.0473      2.00000
      4      -5.9737      2.00000
      5       0.4463      2.00000
      6       0.5017      2.00000
      7       0.7022      2.00000
      8       0.8707      2.00000
      9       0.9828      2.00000
     10       1.0606      2.00000
     11       1.1467      2.00000
     12       1.1993      2.00000
     13       1.2986      2.00000
     14       1.3969      2.00000
     15       1.4787      2.00000
     16       1.5255      2.00000
     17       1.6848      2.00000
     18       1.7568      2.00000
     19       1.7665      2.00000
     20       1.8378      2.00000
     21       1.8966      2.00000
     22       1.9442      2.00000
     23       2.0233      2.00000
     24       2.0853      2.00000
     25       2.1466      2.00000
     26       2.1975      2.00000
     27       2.3266      2.00000
     28       2.3554      2.00000
     29       2.4309      2.00000
     30       2.4652      2.00000
     31       2.5391      2.00000
     32       2.5728      2.00000
     33       2.6916      2.00000
     34       2.7160      2.00000
     35       2.7539      2.00000
     36       2.7559      2.00000
     37       2.7912      2.00000
     38       2.8673      2.00000
     39       2.9004      2.00000
     40       2.9825      2.00000
     41       3.0174      2.00000
     42       3.0508      2.00000
     43       3.1239      2.00000
     44       3.2516      2.00000
     45       3.4480      2.00000
     46       3.5375      2.00000
     47       3.8970      2.00000
     48       4.1057      2.00000
     49       4.3701      2.00000
     50       4.5433      2.00000
     51       5.0034      2.00000
     52       5.1293      2.00000
     53       5.7129      2.00000
     54       5.8981      2.00000
     55       6.1201      2.00000
     56       6.3725      2.00000
     57       8.1979      0.00000
     58       9.0391      0.00000
     59       9.4353      0.00000
     60       9.5344      0.00000
     61       9.8980      0.00000
     62      10.4452      0.00000
     63      10.8857      0.00000
     64      11.1338      0.00000
     65      11.5894      0.00000
     66      11.8738      0.00000
     67      12.3001      0.00000
     68      12.6556      0.00000

 k-point   134 :       0.3421   -0.3421    0.0000
  band No.  band energies     occupation 
      1      -6.2611      2.00000
      2      -6.1044      2.00000
      3      -6.0450      2.00000
      4      -5.9760      2.00000
      5       0.4194      2.00000
      6       0.4749      2.00000
      7       0.7426      2.00000
      8       0.9095      2.00000
      9       0.9876      2.00000
     10       1.0544      2.00000
     11       1.1627      2.00000
     12       1.2095      2.00000
     13       1.2887      2.00000
     14       1.3521      2.00000
     15       1.4996      2.00000
     16       1.5719      2.00000
     17       1.6851      2.00000
     18       1.7631      2.00000
     19       1.7808      2.00000
     20       1.8450      2.00000
     21       1.9126      2.00000
     22       1.9469      2.00000
     23       2.0256      2.00000
     24       2.0758      2.00000
     25       2.1571      2.00000
     26       2.1961      2.00000
     27       2.3126      2.00000
     28       2.3399      2.00000
     29       2.4225      2.00000
     30       2.4657      2.00000
     31       2.5351      2.00000
     32       2.5597      2.00000
     33       2.6815      2.00000
     34       2.6944      2.00000
     35       2.7449      2.00000
     36       2.7527      2.00000
     37       2.7817      2.00000
     38       2.8744      2.00000
     39       2.8978      2.00000
     40       2.9848      2.00000
     41       3.0169      2.00000
     42       3.0424      2.00000
     43       3.1201      2.00000
     44       3.2351      2.00000
     45       3.4002      2.00000
     46       3.5407      2.00000
     47       3.8824      2.00000
     48       4.0979      2.00000
     49       4.3540      2.00000
     50       4.4942      2.00000
     51       5.0835      2.00000
     52       5.1647      2.00000
     53       5.6764      2.00000
     54       5.8689      2.00000
     55       6.1106      2.00000
     56       6.3185      2.00000
     57       8.1860      0.00000
     58       9.0324      0.00000
     59       9.2742      0.00000
     60       9.4051      0.00000
     61       9.9236      0.00000
     62      10.4902      0.00000
     63      10.9745      0.00000
     64      11.2074      0.00000
     65      11.6217      0.00000
     66      11.8863      0.00000
     67      12.2627      0.00000
     68      12.5969      0.00000

 k-point   135 :       0.3684   -0.3684    0.0000
  band No.  band energies     occupation 
      1      -6.2302      2.00000
      2      -6.0921      2.00000
      3      -6.0423      2.00000
      4      -5.9780      2.00000
      5       0.3911      2.00000
      6       0.4562      2.00000
      7       0.7805      2.00000
      8       0.9332      2.00000
      9       0.9981      2.00000
     10       1.0473      2.00000
     11       1.1871      2.00000
     12       1.2086      2.00000
     13       1.2822      2.00000
     14       1.3188      2.00000
     15       1.5169      2.00000
     16       1.6065      2.00000
     17       1.6968      2.00000
     18       1.7657      2.00000
     19       1.7908      2.00000
     20       1.8529      2.00000
     21       1.9279      2.00000
     22       1.9599      2.00000
     23       2.0292      2.00000
     24       2.0693      2.00000
     25       2.1549      2.00000
     26       2.2065      2.00000
     27       2.2960      2.00000
     28       2.3255      2.00000
     29       2.4168      2.00000
     30       2.4674      2.00000
     31       2.5147      2.00000
     32       2.5623      2.00000
     33       2.6575      2.00000
     34       2.6769      2.00000
     35       2.7302      2.00000
     36       2.7438      2.00000
     37       2.7855      2.00000
     38       2.8765      2.00000
     39       2.8995      2.00000
     40       2.9809      2.00000
     41       3.0113      2.00000
     42       3.0391      2.00000
     43       3.1228      2.00000
     44       3.2204      2.00000
     45       3.3555      2.00000
     46       3.5228      2.00000
     47       3.8503      2.00000
     48       4.1212      2.00000
     49       4.2917      2.00000
     50       4.5224      2.00000
     51       5.1771      2.00000
     52       5.2172      2.00000
     53       5.6317      2.00000
     54       5.7975      2.00000
     55       6.1021      2.00000
     56       6.2798      2.00000
     57       8.1567      0.00000
     58       9.0059      0.00000
     59       9.0953      0.00000
     60       9.3015      0.00000
     61       9.9861      0.00000
     62      10.5736      0.00000
     63      11.0703      0.00000
     64      11.2807      0.00000
     65      11.6455      0.00000
     66      11.9296      0.00000
     67      12.2508      0.00000
     68      12.5015      0.00000

 k-point   136 :       0.3947   -0.3947    0.0000
  band No.  band energies     occupation 
      1      -6.2061      2.00000
      2      -6.0793      2.00000
      3      -6.0392      2.00000
      4      -5.9796      2.00000
      5       0.3658      2.00000
      6       0.4428      2.00000
      7       0.8136      2.00000
      8       0.9409      2.00000
      9       1.0094      2.00000
     10       1.0491      2.00000
     11       1.1810      2.00000
     12       1.2190      2.00000
     13       1.2798      2.00000
     14       1.3109      2.00000
     15       1.5274      2.00000
     16       1.6217      2.00000
     17       1.7258      2.00000
     18       1.7653      2.00000
     19       1.8005      2.00000
     20       1.8575      2.00000
     21       1.9406      2.00000
     22       1.9768      2.00000
     23       2.0303      2.00000
     24       2.0743      2.00000
     25       2.1464      2.00000
     26       2.2203      2.00000
     27       2.2846      2.00000
     28       2.3104      2.00000
     29       2.4130      2.00000
     30       2.4652      2.00000
     31       2.5016      2.00000
     32       2.5639      2.00000
     33       2.6322      2.00000
     34       2.6595      2.00000
     35       2.7139      2.00000
     36       2.7314      2.00000
     37       2.7937      2.00000
     38       2.8746      2.00000
     39       2.9035      2.00000
     40       2.9701      2.00000
     41       3.0047      2.00000
     42       3.0382      2.00000
     43       3.1273      2.00000
     44       3.2094      2.00000
     45       3.3245      2.00000
     46       3.4685      2.00000
     47       3.8228      2.00000
     48       4.1188      2.00000
     49       4.2784      2.00000
     50       4.5957      2.00000
     51       5.1989      2.00000
     52       5.3362      2.00000
     53       5.5770      2.00000
     54       5.6988      2.00000
     55       6.0945      2.00000
     56       6.2570      2.00000
     57       8.1237      0.00000
     58       8.8503      0.00000
     59       9.0303      0.00000
     60       9.2249      0.00000
     61      10.0748      0.00000
     62      10.6755      0.00000
     63      11.1642      0.00000
     64      11.3532      0.00000
     65      11.6498      0.00000
     66      11.9844      0.00000
     67      12.2699      0.00000
     68      12.3966      0.00000

 k-point   137 :       0.4211   -0.4211    0.0000
  band No.  band energies     occupation 
      1      -6.1888      2.00000
      2      -6.0673      2.00000
      3      -6.0358      2.00000
      4      -5.9809      2.00000
      5       0.3456      2.00000
      6       0.4332      2.00000
      7       0.8412      2.00000
      8       0.9449      2.00000
      9       1.0038      2.00000
     10       1.0609      2.00000
     11       1.1551      2.00000
     12       1.2396      2.00000
     13       1.2826      2.00000
     14       1.3182      2.00000
     15       1.5329      2.00000
     16       1.6275      2.00000
     17       1.7540      2.00000
     18       1.7640      2.00000
     19       1.8154      2.00000
     20       1.8604      2.00000
     21       1.9522      2.00000
     22       1.9855      2.00000
     23       2.0358      2.00000
     24       2.0773      2.00000
     25       2.1469      2.00000
     26       2.2267      2.00000
     27       2.2794      2.00000
     28       2.3027      2.00000
     29       2.4081      2.00000
     30       2.4503      2.00000
     31       2.5071      2.00000
     32       2.5647      2.00000
     33       2.6132      2.00000
     34       2.6434      2.00000
     35       2.6965      2.00000
     36       2.7144      2.00000
     37       2.8055      2.00000
     38       2.8705      2.00000
     39       2.9080      2.00000
     40       2.9583      2.00000
     41       2.9992      2.00000
     42       3.0370      2.00000
     43       3.1275      2.00000
     44       3.2021      2.00000
     45       3.3091      2.00000
     46       3.3892      2.00000
     47       3.8104      2.00000
     48       4.0481      2.00000
     49       4.3714      2.00000
     50       4.6864      2.00000
     51       5.1931      2.00000
     52       5.4150      2.00000
     53       5.5110      2.00000
     54       5.6321      2.00000
     55       6.0865      2.00000
     56       6.2456      2.00000
     57       8.0996      0.00000
     58       8.6561      0.00000
     59       9.0080      0.00000
     60       9.1721      0.00000
     61      10.1809      0.00000
     62      10.7631      0.00000
     63      11.2548      0.00000
     64      11.4320      0.00000
     65      11.6509      0.00000
     66      11.9871      0.00000
     67      12.2837      0.00000
     68      12.3643      0.00000

 k-point   138 :       0.4474   -0.4474    0.0000
  band No.  band energies     occupation 
      1      -6.1775      2.00000
      2      -6.0581      2.00000
      3      -6.0322      2.00000
      4      -5.9817      2.00000
      5       0.3310      2.00000
      6       0.4269      2.00000
      7       0.8652      2.00000
      8       0.9479      2.00000
      9       0.9915      2.00000
     10       1.0558      2.00000
     11       1.1522      2.00000
     12       1.2499      2.00000
     13       1.2866      2.00000
     14       1.3291      2.00000
     15       1.5374      2.00000
     16       1.6308      2.00000
     17       1.7564      2.00000
     18       1.7719      2.00000
     19       1.8392      2.00000
     20       1.8653      2.00000
     21       1.9508      2.00000
     22       1.9999      2.00000
     23       2.0403      2.00000
     24       2.0701      2.00000
     25       2.1568      2.00000
     26       2.2297      2.00000
     27       2.2712      2.00000
     28       2.3138      2.00000
     29       2.3957      2.00000
     30       2.4340      2.00000
     31       2.5211      2.00000
     32       2.5683      2.00000
     33       2.6012      2.00000
     34       2.6314      2.00000
     35       2.6782      2.00000
     36       2.6937      2.00000
     37       2.8224      2.00000
     38       2.8654      2.00000
     39       2.9121      2.00000
     40       2.9504      2.00000
     41       2.9942      2.00000
     42       3.0347      2.00000
     43       3.1246      2.00000
     44       3.1974      2.00000
     45       3.2948      2.00000
     46       3.3165      2.00000
     47       3.8111      2.00000
     48       3.9754      2.00000
     49       4.4988      2.00000
     50       4.7830      2.00000
     51       5.1628      2.00000
     52       5.3154      2.00000
     53       5.5064      2.00000
     54       5.6622      2.00000
     55       6.0774      2.00000
     56       6.2415      2.00000
     57       8.0939      0.00000
     58       8.4819      0.00000
     59       8.9905      0.00000
     60       9.1373      0.00000
     61      10.2906      0.00000
     62      10.8137      0.00000
     63      11.3285      0.00000
     64      11.4899      0.00000
     65      11.7039      0.00000
     66      11.9084      0.00000
     67      12.2896      0.00000
     68      12.4160      0.00000

 k-point   139 :       0.4737   -0.4737    0.0000
  band No.  band energies     occupation 
      1      -6.1713      2.00000
      2      -6.0527      2.00000
      3      -6.0290      2.00000
      4      -5.9823      2.00000
      5       0.3222      2.00000
      6       0.4233      2.00000
      7       0.8887      2.00000
      8       0.9389      2.00000
      9       0.9864      2.00000
     10       1.0399      2.00000
     11       1.1649      2.00000
     12       1.2523      2.00000
     13       1.2893      2.00000
     14       1.3366      2.00000
     15       1.5425      2.00000
     16       1.6324      2.00000
     17       1.7510      2.00000
     18       1.7774      2.00000
     19       1.8609      2.00000
     20       1.8720      2.00000
     21       1.9427      2.00000
     22       2.0159      2.00000
     23       2.0401      2.00000
     24       2.0613      2.00000
     25       2.1623      2.00000
     26       2.2334      2.00000
     27       2.2754      2.00000
     28       2.3257      2.00000
     29       2.3739      2.00000
     30       2.4268      2.00000
     31       2.5321      2.00000
     32       2.5759      2.00000
     33       2.5943      2.00000
     34       2.6264      2.00000
     35       2.6621      2.00000
     36       2.6739      2.00000
     37       2.8408      2.00000
     38       2.8620      2.00000
     39       2.9157      2.00000
     40       2.9451      2.00000
     41       2.9907      2.00000
     42       3.0325      2.00000
     43       3.1230      2.00000
     44       3.1949      2.00000
     45       3.2347      2.00000
     46       3.3109      2.00000
     47       3.8214      2.00000
     48       3.9197      2.00000
     49       4.6240      2.00000
     50       4.8737      2.00000
     51       5.1106      2.00000
     52       5.1849      2.00000
     53       5.4949      2.00000
     54       5.7244      2.00000
     55       6.0687      2.00000
     56       6.2413      2.00000
     57       8.1103      0.00000
     58       8.3470      0.00000
     59       8.9795      0.00000
     60       9.1166      0.00000
     61      10.3803      0.00000
     62      10.8315      0.00000
     63      11.3732      0.00000
     64      11.4961      0.00000
     65      11.7942      0.00000
     66      11.8477      0.00000
     67      12.3113      0.00000
     68      12.4497      0.00000

 k-point   140 :       0.5000   -0.5000    0.0000
  band No.  band energies     occupation 
      1      -6.1693      2.00000
      2      -6.0511      2.00000
      3      -6.0277      2.00000
      4      -5.9824      2.00000
      5       0.3193      2.00000
      6       0.4221      2.00000
      7       0.9082      2.00000
      8       0.9217      2.00000
      9       0.9882      2.00000
     10       1.0320      2.00000
     11       1.1717      2.00000
     12       1.2520      2.00000
     13       1.2903      2.00000
     14       1.3390      2.00000
     15       1.5451      2.00000
     16       1.6328      2.00000
     17       1.7484      2.00000
     18       1.7791      2.00000
     19       1.8684      2.00000
     20       1.8764      2.00000
     21       1.9388      2.00000
     22       2.0217      2.00000
     23       2.0398      2.00000
     24       2.0576      2.00000
     25       2.1630      2.00000
     26       2.2344      2.00000
     27       2.2847      2.00000
     28       2.3280      2.00000
     29       2.3619      2.00000
     30       2.4252      2.00000
     31       2.5359      2.00000
     32       2.5798      2.00000
     33       2.5924      2.00000
     34       2.6266      2.00000
     35       2.6548      2.00000
     36       2.6646      2.00000
     37       2.8484      2.00000
     38       2.8624      2.00000
     39       2.9176      2.00000
     40       2.9422      2.00000
     41       2.9896      2.00000
     42       3.0316      2.00000
     43       3.1234      2.00000
     44       3.1943      2.00000
     45       3.2076      2.00000
     46       3.3115      2.00000
     47       3.8308      2.00000
     48       3.8949      2.00000
     49       4.6867      2.00000
     50       4.9237      2.00000
     51       5.0666      2.00000
     52       5.1262      2.00000
     53       5.4896      2.00000
     54       5.7502      2.00000
     55       6.0648      2.00000
     56       6.2418      2.00000
     57       8.1289      0.00000
     58       8.2869      0.00000
     59       8.9759      0.00000
     60       9.1096      0.00000
     61      10.4166      0.00000
     62      10.8339      0.00000
     63      11.3878      0.00000
     64      11.4930      0.00000
     65      11.7701      0.00000
     66      11.8996      0.00000
     67      12.3230      0.00000
     68      12.4541      0.00000


--------------------------------------------------------------------------------------------------------


 soft charge-density along one line, spin component           1
         0         1         2         3         4         5         6         7         8         9
 total charge-density along one line
 
 pseudopotential strength for first ion, spin component:           1
 -5.299  -0.002   0.008  -0.000   0.000  -5.515  -0.002   0.008
 -0.002  -5.304  -0.000  -0.007   0.001  -0.002  -5.520  -0.000
  0.008  -0.000  -5.305  -0.001  -0.000   0.008  -0.000  -5.521
 -0.000  -0.007  -0.001  -5.304  -0.002  -0.000  -0.007  -0.001
  0.000   0.001  -0.000  -0.002  -5.298   0.000   0.001  -0.000
 -5.515  -0.002   0.008  -0.000   0.000  -5.704  -0.002   0.007
 -0.002  -5.520  -0.000  -0.007   0.001  -0.002  -5.708  -0.000
  0.008  -0.000  -5.521  -0.001  -0.000   0.007  -0.000  -5.709
 -0.000  -0.007  -0.001  -5.520  -0.002  -0.000  -0.007  -0.001
  0.000   0.001  -0.000  -0.002  -5.514   0.000   0.001  -0.000
 -0.003   0.002   0.001  -0.002  -0.001  -0.003   0.002   0.001
 -0.006   0.003   0.002  -0.004  -0.001  -0.006   0.003   0.001
  0.001   0.004  -0.000  -0.000   0.000   0.001   0.004  -0.000
 -0.000  -0.001   0.004   0.001  -0.000  -0.000  -0.001   0.004
 -0.000  -0.000  -0.000   0.003   0.001  -0.000  -0.000  -0.000
  0.001   0.005  -0.000  -0.000   0.000   0.001   0.005  -0.000
 -0.000  -0.001   0.005   0.001  -0.000  -0.000  -0.001   0.004
 -0.000  -0.000  -0.000   0.004   0.001  -0.000  -0.000  -0.000
 total augmentation occupancy for first ion, spin component:           1
  2.000   0.000   0.000   0.000   0.000   0.000   0.000   0.000   0.000   0.000   0.000   0.000   0.000   0.000   0.000   0.000
  0.000   2.000   0.000   0.000   0.000   0.000   0.000   0.000   0.000   0.000   0.000   0.000   0.000   0.000   0.000   0.000
  0.000   0.000   2.000   0.000   0.000   0.000   0.000   0.000   0.000   0.000   0.000   0.000   0.000   0.000   0.000   0.000
  0.000   0.000   0.000   2.000   0.000   0.000   0.000   0.000   0.000   0.000   0.000   0.000   0.000   0.000   0.000   0.000
  0.000   0.000   0.000   0.000   2.000   0.000   0.000   0.000   0.000   0.000   0.000   0.000   0.000   0.000   0.000   0.000
  0.000   0.000   0.000   0.000   0.000   0.000   0.000   0.000   0.000   0.000   0.000   0.000   0.000   0.000   0.000   0.000
  0.000   0.000   0.000   0.000   0.000   0.000   0.000   0.000   0.000   0.000   0.000   0.000   0.000   0.000   0.000   0.000
  0.000   0.000   0.000   0.000   0.000   0.000   0.000   0.000   0.000   0.000   0.000   0.000   0.000   0.000   0.000   0.000
  0.000   0.000   0.000   0.000   0.000   0.000   0.000   0.000   0.000   0.000   0.000   0.000   0.000   0.000   0.000   0.000
  0.000   0.000   0.000   0.000   0.000   0.000   0.000   0.000   0.000   0.000   0.000   0.000   0.000   0.000   0.000   0.000
  0.000   0.000   0.000   0.000   0.000   0.000   0.000   0.000   0.000   0.000   1.000   0.000   0.000   0.000   0.000   0.000
  0.000   0.000   0.000   0.000   0.000   0.000   0.000   0.000   0.000   0.000   0.000   0.000   0.000   0.000   0.000   0.000
  0.000   0.000   0.000   0.000   0.000   0.000   0.000   0.000   0.000   0.000   0.000   0.000   0.000   0.000   0.000   0.000
  0.000   0.000   0.000   0.000   0.000   0.000   0.000   0.000   0.000   0.000   0.000   0.000   0.000   0.000   0.000   0.000
  0.000   0.000   0.000   0.000   0.000   0.000   0.000   0.000   0.000   0.000   0.000   0.000   0.000   0.000   0.000   0.000
  0.000   0.000   0.000   0.000   0.000   0.000   0.000   0.000   0.000   0.000   0.000   0.000   0.000   0.000   0.000   0.000
  0.000   0.000   0.000   0.000   0.000   0.000   0.000   0.000   0.000   0.000   0.000   0.000   0.000   0.000   0.000   0.000
  0.000   0.000   0.000   0.000   0.000   0.000   0.000   0.000   0.000   0.000   0.000   0.000   0.000   0.000   0.000   0.000


------------------------ aborting loop because EDIFF is reached ----------------------------------------


    CHARGE:  cpu time    0.4912: real time    0.4912
    FORLOC:  cpu time    0.0041: real time    0.0041
    FORNL :  cpu time    4.2111: real time    4.2110
    STRESS:  cpu time    4.5912: real time    4.5911
    FORCOR:  cpu time    0.0303: real time    0.0303
    FORHAR:  cpu time    0.0085: real time    0.0085
    OFIELD:  cpu time    0.0001: real time    0.0001

 ---------------------------------------------------------------------------------------------

         DFTD3 V3.0 Rev 1        
 IVDW         = 12
 DF pbe       
 parameters
 VDW_S6       =    1.0000
 VDW_S8       =    0.7875
 VDW_A1       =    0.4289
 VDW_A2       =    4.4407
 k1-k3        =   16.0000    1.3333   -4.0000
 VDW_RADIUS   =   50.2022 A
 VDW_CNRADIUS =   21.1671 A
 Edisp (eV)   -5.81642

 E6    (eV) :    -3.3759
 E8    (eV) :    -2.4406
 % E8        : 41.96
    FORVDW:  cpu time    0.0564: real time    0.0565

  FORCE on cell =-STRESS in cart. coord.  units (eV):
  Direction    XX          YY          ZZ          XY          YZ          ZX
  --------------------------------------------------------------------------------------
  Alpha Z   385.25821   385.25821   385.25821
  Ewald   -2902.67439 -2766.50145 -2803.73907   -33.72163   -19.28231  -149.28182
  Hartree   600.10158   698.35129   657.87663   -21.78901    -8.17952   -88.79221
  E(xc)    -553.46974  -553.61441  -553.39821    -0.01558    -0.11138    -0.19435
  Local     199.00700   -28.45129    51.97740    55.71856    24.79534   237.62729
  n-local   165.26022   165.80886   166.05867    -0.19479     0.46642    -1.29044
  augment   677.76871   678.36912   678.34091     0.25766    -0.08818     0.87301
  Kinetic  1432.39784  1425.71337  1424.29103    -0.20513     2.03312     1.11733
  Fock        0.00000     0.00000     0.00000     0.00000     0.00000     0.00000
  vdW        -5.93240    -5.93113    -5.97875     0.00728    -0.00076     0.04828
  -------------------------------------------------------------------------------------
  Total      -2.28298    -0.99744     0.68681     0.05736    -0.36729     0.10709
  in kB     -16.72693    -7.30803     5.03209     0.42024    -2.69107     0.78462
  external pressure =       -6.33 kB  Pullay stress =        0.00 kB


 VOLUME and BASIS-vectors are now :
 -----------------------------------------------------------------------------
  energy-cutoff  :      500.00
  volume of cell :      218.67
      direct lattice vectors                 reciprocal lattice vectors
     4.173966496  0.040003557  0.031058567     0.238989593 -0.002177536  0.082185279
     0.077251687  6.754702321 -0.045674153    -0.001425631  0.148067266  0.000879571
    -2.661447624 -0.071588137  7.737424559    -0.000967737  0.000882784  0.128917266

  length of vectors
     4.174273736  6.755298468  8.182674815     0.252735409  0.148076741  0.128923920


 FORCES acting on ions
    electron-ion (+dipol)            ewald-force                    non-local-force                 convergence-correction
 -----------------------------------------------------------------------------------------------
   -.270E+01 0.167E+02 -.165E+02   0.188E+01 -.153E+02 0.147E+02   0.453E+00 -.348E+00 0.706E+00   0.342E+00 -.105E+01 0.112E+01
   -.992E+01 0.316E+02 -.434E+02   0.105E+02 -.308E+02 0.442E+02   -.326E+00 0.327E-01 -.452E+00   -.232E+00 -.702E+00 -.339E+00
   0.395E+02 0.282E+02 0.677E+02   -.386E+02 -.274E+02 -.688E+02   -.470E+00 -.660E-01 0.248E+00   -.368E+00 -.571E+00 0.186E+00
   0.182E+02 0.328E+01 0.455E+01   -.174E+02 -.375E+01 -.363E+01   -.635E+00 -.886E-01 -.496E+00   -.192E+00 0.413E+00 -.448E+00
   -.240E+02 -.414E+02 0.370E+02   0.229E+02 0.409E+02 -.370E+02   0.642E+00 0.197E+00 0.343E+00   0.433E+00 0.495E+00 -.405E+00
   -.368E+02 -.336E+01 0.118E+02   0.361E+02 0.339E+01 -.930E+01   0.366E+00 -.205E+00 -.431E+00   0.217E+00 0.131E+00 -.143E+01
   0.183E+02 -.155E+02 -.307E+02   -.175E+02 0.143E+02 0.283E+02   -.162E+00 -.609E-02 0.427E+00   -.548E+00 0.120E+01 0.137E+01
   -.133E+02 -.162E+02 -.359E+02   0.124E+02 0.163E+02 0.367E+02   0.394E+00 -.675E-01 -.299E+00   0.402E+00 0.220E-01 0.109E+00
   -.167E+02 -.906E+01 -.295E+02   0.184E+02 0.904E+01 0.297E+02   -.174E+01 -.164E+00 0.120E+00   -.135E+00 0.642E-01 -.710E-01
   0.363E+02 -.954E+01 0.143E+02   -.401E+02 0.962E+01 -.139E+02   0.381E+01 -.307E+00 -.661E+00   0.135E+00 0.164E+00 -.455E-01
   0.286E+02 0.611E+01 0.123E+02   -.313E+02 -.479E+01 -.132E+02   0.287E+01 -.982E+00 0.352E+00   -.209E-01 -.280E+00 0.275E+00
   -.391E+02 0.111E+02 0.642E+01   0.426E+02 -.114E+02 -.783E+01   -.366E+01 0.235E+00 0.181E+01   -.375E-01 -.224E-01 0.190E-01
 -----------------------------------------------------------------------------------------------
   -.153E+01 0.190E+01 -.200E+01   -.142E-13 -.604E-13 -.426E-13   0.153E+01 -.177E+01 0.166E+01   -.308E-02 -.141E+00 0.340E+00
 
 
 POSITION                                       TOTAL-FORCE (eV/Angst)
 -----------------------------------------------------------------------------------
      0.31926      3.13271      6.49050        -0.026154     -0.081478     -0.012744
      1.12938      3.61591      1.06836         0.024965      0.176668     -0.003980
     -0.21874      2.41817      3.53837         0.030660      0.097766     -0.623551
      0.07681      6.59403      5.11139         0.019207     -0.144129     -0.022080
      1.53447      0.09141      2.67125        -0.019220      0.160712     -0.059624
      1.86696      4.37234      4.27710        -0.075829     -0.049227      0.640333
     -1.68009      0.91373      7.30182         0.077127     -0.018131     -0.581486
      3.26431      5.73587      0.39357        -0.086751      0.066896      0.612910
      3.02455      1.71275      1.17616        -0.140970     -0.123889      0.307847
     -0.17448      5.03614      2.79466         0.130574     -0.054200     -0.335210
     -1.39386      5.04126      6.55917         0.189932      0.052119     -0.335034
      1.79006      1.67439      4.95450        -0.123540     -0.083107      0.412617
 -----------------------------------------------------------------------------------
    total drift:                               -0.000098     -0.008719      0.007189


--------------------------------------------------------------------------------------------------------



  FREE ENERGIE OF THE ION-ELECTRON SYSTEM (eV)
  ---------------------------------------------------
  free  energy   TOTEN  =       -36.36706898 eV

  energy  without entropy=      -36.36721465  energy(sigma->0) =      -36.36711753
 


--------------------------------------------------------------------------------------------------------


    POTLOK:  cpu time    0.0312: real time    0.0312


--------------------------------------------------------------------------------------------------------


     LOOP+:  cpu time   72.5852: real time   72.5866
    4ORBIT:  cpu time    0.0000: real time    0.0000

 total amount of memory used by VASP MPI-rank0   176280. kBytes
=======================================================================

   base      :      30000. kBytes
   nonl-proj :      84698. kBytes
   fftplans  :       2321. kBytes
   grid      :       4076. kBytes
   one-center:         46. kBytes
   wavefun   :      55139. kBytes
 
  
  
 General timing and accounting informations for this job:
 ========================================================
  
                  Total CPU time used (sec):       81.660
                            User time (sec):       73.210
                          System time (sec):        8.450
                         Elapsed time (sec):       82.045
  
                   Maximum memory used (kb):      296000.
                   Average memory used (kb):           0.
  
                          Minor page faults:        44369
                          Major page faults:            0
                 Voluntary context switches:          752
