Primitive Cell
  1.000000
    1.51251887166950   -0.03158458027583    7.76848312604899
    0.07725168674335    6.75470232089244   -0.04567415335905
   -4.17396649554146   -0.04000355711323   -0.03105856669845
  Ag  Se  S 
   8   1   3
DIRECT
    0.8391937917020346    0.4691049507537846    0.2362921401322775    Ag1
    0.1398292054796262    0.5347277887017934   -0.2100099302926307    Ag2
    0.4585036242369000    0.3614766049536330    0.2252442713251762    Ag3
    0.6646932565459360    0.9807460417182344    0.2406138562048478    Ag4
    0.3429659811081033    0.0136974742734283   -0.2430943045896747    Ag5
    0.5534455647761241    0.6485006712559833   -0.2347333134024149    Ag6
    0.9437631436667938    0.1441105999568532    0.7471755179984312    Ag7
    0.0526422622605902    0.8449874915334245   -0.7473491344612913    Ag8
    0.1502120728716033    0.2503252622448712   -0.6655581570695031    Se1
    0.3648948451126179    0.7483936905926408    0.1878806140910921     S1
    0.8513901333565677    0.7542013518033727    0.6564190078095863     S2
    0.6384661368831032    0.2497280782119792   -0.1928805497458810     S3
