<?xml version="1.0" encoding="ISO-8859-1"?>
<modeling>
 <generator>
  <i name="program" type="string">vasp </i>
  <i name="version" type="string">5.4.4.18Apr17-6-g9f103f2a35  </i>
  <i name="subversion" type="string">(build Jan 06 2021 21:16:15) complex            parallel </i>
  <i name="platform" type="string">LinuxIFC </i>
  <i name="date" type="string">2025 01 07 </i>
  <i name="time" type="string">14:15:32 </i>
 </generator>
 <incar>
  <i type="string" name="SYSTEM">Ag2SeS</i>
  <i type="int" name="ISTART">     1</i>
  <i type="string" name="PREC">accurate</i>
  <i type="int" name="NSIM">     4</i>
  <i type="int" name="ICHARG">    11</i>
  <i name="ENCUT">    500.00000000</i>
  <i type="int" name="ISMEAR">     1</i>
  <i name="SIGMA">      0.01000000</i>
  <i type="int" name="LMAXMIX">     2</i>
  <i type="logical" name="LWAVE"> F  </i>
  <i type="logical" name="LVHAR"> T  </i>
  <v type="int" name="KPOINT_BSE">    -1     0     0     0</v>
  <i type="logical" name="LDAU"> T  </i>
  <v type="int" name="LDAUTYPE">     2</v>
  <v type="int" name="LDAUL">     2    -1    -1</v>
  <v name="LDAUU">      2.00000000      0.00000000      0.00000000</v>
  <v name="LDAUJ">      0.00000000      0.00000000      0.00000000</v>
 </incar>
 <structure name="primitive_cell" >
  <crystal>
   <varray name="basis" >
    <v>       4.17396650       0.04000356       0.03105857 </v>
    <v>       0.07725169       6.75470232      -0.04567415 </v>
    <v>      -2.66144762      -0.07158814       7.73742456 </v>
   </varray>
   <i name="volume">    218.67366414 </i>
   <varray name="rec_basis" >
    <v>       0.23898959      -0.00217754       0.08218528 </v>
    <v>      -0.00142563       0.14806727       0.00087957 </v>
    <v>      -0.00096774       0.00088278       0.12891727 </v>
   </varray>
  </crystal>
  <varray name="positions" >
   <v>      -0.39709835       0.46910495      -0.16080621 </v>
   <v>       0.19497113      -0.24579865      -0.14860987 </v>
   <v>      -0.16865331       0.24972808      -0.36153386 </v>
   <v>      -0.18422977       0.25032526       0.15021207 </v>
   <v>      -0.21182112      -0.35149933      -0.44655444 </v>
   <v>       0.34983914      -0.46527221       0.13982921 </v>
   <v>      -0.20000860      -0.15501251       0.05264226 </v>
   <v>       0.23325935       0.36147660       0.45850362 </v>
   <v>       0.19658763       0.14411060      -0.05623686 </v>
   <v>       0.42407940      -0.01925396      -0.33530674 </v>
   <v>       0.17701423      -0.25160631       0.36489485 </v>
   <v>      -0.41393971       0.01369747       0.34296598 </v>
  </varray>
 </structure>
 <varray name="primitive_index" >
  <v type="int" >        1 </v>
  <v type="int" >       11 </v>
  <v type="int" >       12 </v>
  <v type="int" >        9 </v>
  <v type="int" >        6 </v>
  <v type="int" >        2 </v>
  <v type="int" >        8 </v>
  <v type="int" >        3 </v>
  <v type="int" >        7 </v>
  <v type="int" >        4 </v>
  <v type="int" >       10 </v>
  <v type="int" >        5 </v>
 </varray>
 <kpoints>
  <generation param="listgenerated">
   <i name="divisions" type="int">      20 </i>
   <v>       0.00000000       0.00000000       0.00000000 </v>
   <v>       0.00000000       0.50000000       0.00000000 </v>
   <v>       0.00000000       0.00000000       0.00000000 </v>
   <v>      -0.50000000      -0.50000000       0.50000000 </v>
   <v>       0.00000000       0.00000000       0.00000000 </v>
   <v>      -0.50000000       0.00000000       0.50000000 </v>
   <v>       0.00000000       0.00000000       0.00000000 </v>
   <v>       0.50000000      -0.50000000       0.00000000 </v>
  </generation>
  <varray name="kpointlist" >
   <v>       0.00000000       0.00000000       0.00000000 </v>
   <v>       0.02631579       0.00000000       0.00000000 </v>
   <v>       0.05263158       0.00000000       0.00000000 </v>
   <v>       0.07894737       0.00000000       0.00000000 </v>
   <v>       0.10526316       0.00000000       0.00000000 </v>
   <v>       0.13157895       0.00000000       0.00000000 </v>
   <v>       0.15789474       0.00000000       0.00000000 </v>
   <v>       0.18421053       0.00000000       0.00000000 </v>
   <v>       0.21052632       0.00000000       0.00000000 </v>
   <v>       0.23684211       0.00000000       0.00000000 </v>
   <v>       0.26315789       0.00000000       0.00000000 </v>
   <v>       0.28947368       0.00000000       0.00000000 </v>
   <v>       0.31578947       0.00000000       0.00000000 </v>
   <v>       0.34210526       0.00000000       0.00000000 </v>
   <v>       0.36842105       0.00000000       0.00000000 </v>
   <v>       0.39473684       0.00000000       0.00000000 </v>
   <v>       0.42105263       0.00000000       0.00000000 </v>
   <v>       0.44736842       0.00000000       0.00000000 </v>
   <v>       0.47368421       0.00000000       0.00000000 </v>
   <v>       0.50000000       0.00000000       0.00000000 </v>
   <v>       0.00000000       0.50000000       0.00000000 </v>
   <v>       0.00000000       0.47368421       0.00000000 </v>
   <v>       0.00000000       0.44736842       0.00000000 </v>
   <v>       0.00000000       0.42105263       0.00000000 </v>
   <v>       0.00000000       0.39473684       0.00000000 </v>
   <v>       0.00000000       0.36842105       0.00000000 </v>
   <v>       0.00000000       0.34210526       0.00000000 </v>
   <v>       0.00000000       0.31578947       0.00000000 </v>
   <v>       0.00000000       0.28947368       0.00000000 </v>
   <v>       0.00000000       0.26315789       0.00000000 </v>
   <v>       0.00000000       0.23684211       0.00000000 </v>
   <v>       0.00000000       0.21052632       0.00000000 </v>
   <v>       0.00000000       0.18421053       0.00000000 </v>
   <v>       0.00000000       0.15789474       0.00000000 </v>
   <v>       0.00000000       0.13157895       0.00000000 </v>
   <v>       0.00000000       0.10526316       0.00000000 </v>
   <v>       0.00000000       0.07894737       0.00000000 </v>
   <v>       0.00000000       0.05263158       0.00000000 </v>
   <v>       0.00000000       0.02631579       0.00000000 </v>
   <v>       0.00000000       0.00000000       0.00000000 </v>
   <v>       0.00000000       0.00000000       0.00000000 </v>
   <v>       0.00000000       0.00000000       0.02631579 </v>
   <v>       0.00000000       0.00000000       0.05263158 </v>
   <v>       0.00000000       0.00000000       0.07894737 </v>
   <v>       0.00000000       0.00000000       0.10526316 </v>
   <v>       0.00000000       0.00000000       0.13157895 </v>
   <v>       0.00000000       0.00000000       0.15789474 </v>
   <v>       0.00000000       0.00000000       0.18421053 </v>
   <v>       0.00000000       0.00000000       0.21052632 </v>
   <v>       0.00000000       0.00000000       0.23684211 </v>
   <v>       0.00000000       0.00000000       0.26315789 </v>
   <v>       0.00000000       0.00000000       0.28947368 </v>
   <v>       0.00000000       0.00000000       0.31578947 </v>
   <v>       0.00000000       0.00000000       0.34210526 </v>
   <v>       0.00000000       0.00000000       0.36842105 </v>
   <v>       0.00000000       0.00000000       0.39473684 </v>
   <v>       0.00000000       0.00000000       0.42105263 </v>
   <v>       0.00000000       0.00000000       0.44736842 </v>
   <v>       0.00000000       0.00000000       0.47368421 </v>
   <v>       0.00000000       0.00000000       0.50000000 </v>
   <v>      -0.50000000      -0.50000000       0.50000000 </v>
   <v>      -0.47368421      -0.47368421       0.47368421 </v>
   <v>      -0.44736842      -0.44736842       0.44736842 </v>
   <v>      -0.42105263      -0.42105263       0.42105263 </v>
   <v>      -0.39473684      -0.39473684       0.39473684 </v>
   <v>      -0.36842105      -0.36842105       0.36842105 </v>
   <v>      -0.34210526      -0.34210526       0.34210526 </v>
   <v>      -0.31578947      -0.31578947       0.31578947 </v>
   <v>      -0.28947368      -0.28947368       0.28947368 </v>
   <v>      -0.26315789      -0.26315789       0.26315789 </v>
   <v>      -0.23684211      -0.23684211       0.23684211 </v>
   <v>      -0.21052632      -0.21052632       0.21052632 </v>
   <v>      -0.18421053      -0.18421053       0.18421053 </v>
   <v>      -0.15789474      -0.15789474       0.15789474 </v>
   <v>      -0.13157895      -0.13157895       0.13157895 </v>
   <v>      -0.10526316      -0.10526316       0.10526316 </v>
   <v>      -0.07894737      -0.07894737       0.07894737 </v>
   <v>      -0.05263158      -0.05263158       0.05263158 </v>
   <v>      -0.02631579      -0.02631579       0.02631579 </v>
   <v>       0.00000000       0.00000000       0.00000000 </v>
   <v>       0.00000000       0.00000000       0.00000000 </v>
   <v>       0.00000000      -0.02631579       0.02631579 </v>
   <v>       0.00000000      -0.05263158       0.05263158 </v>
   <v>       0.00000000      -0.07894737       0.07894737 </v>
   <v>       0.00000000      -0.10526316       0.10526316 </v>
   <v>       0.00000000      -0.13157895       0.13157895 </v>
   <v>       0.00000000      -0.15789474       0.15789474 </v>
   <v>       0.00000000      -0.18421053       0.18421053 </v>
   <v>       0.00000000      -0.21052632       0.21052632 </v>
   <v>       0.00000000      -0.23684211       0.23684211 </v>
   <v>       0.00000000      -0.26315789       0.26315789 </v>
   <v>       0.00000000      -0.28947368       0.28947368 </v>
   <v>       0.00000000      -0.31578947       0.31578947 </v>
   <v>       0.00000000      -0.34210526       0.34210526 </v>
   <v>       0.00000000      -0.36842105       0.36842105 </v>
   <v>       0.00000000      -0.39473684       0.39473684 </v>
   <v>       0.00000000      -0.42105263       0.42105263 </v>
   <v>       0.00000000      -0.44736842       0.44736842 </v>
   <v>       0.00000000      -0.47368421       0.47368421 </v>
   <v>       0.00000000      -0.50000000       0.50000000 </v>
   <v>      -0.50000000       0.00000000       0.50000000 </v>
   <v>      -0.47368421       0.00000000       0.47368421 </v>
   <v>      -0.44736842       0.00000000       0.44736842 </v>
   <v>      -0.42105263       0.00000000       0.42105263 </v>
   <v>      -0.39473684       0.00000000       0.39473684 </v>
   <v>      -0.36842105       0.00000000       0.36842105 </v>
   <v>      -0.34210526       0.00000000       0.34210526 </v>
   <v>      -0.31578947       0.00000000       0.31578947 </v>
   <v>      -0.28947368       0.00000000       0.28947368 </v>
   <v>      -0.26315789       0.00000000       0.26315789 </v>
   <v>      -0.23684211       0.00000000       0.23684211 </v>
   <v>      -0.21052632       0.00000000       0.21052632 </v>
   <v>      -0.18421053       0.00000000       0.18421053 </v>
   <v>      -0.15789474       0.00000000       0.15789474 </v>
   <v>      -0.13157895       0.00000000       0.13157895 </v>
   <v>      -0.10526316       0.00000000       0.10526316 </v>
   <v>      -0.07894737       0.00000000       0.07894737 </v>
   <v>      -0.05263158       0.00000000       0.05263158 </v>
   <v>      -0.02631579       0.00000000       0.02631579 </v>
   <v>       0.00000000       0.00000000       0.00000000 </v>
   <v>       0.00000000       0.00000000       0.00000000 </v>
   <v>       0.02631579      -0.02631579       0.00000000 </v>
   <v>       0.05263158      -0.05263158       0.00000000 </v>
   <v>       0.07894737      -0.07894737       0.00000000 </v>
   <v>       0.10526316      -0.10526316       0.00000000 </v>
   <v>       0.13157895      -0.13157895       0.00000000 </v>
   <v>       0.15789474      -0.15789474       0.00000000 </v>
   <v>       0.18421053      -0.18421053       0.00000000 </v>
   <v>       0.21052632      -0.21052632       0.00000000 </v>
   <v>       0.23684211      -0.23684211       0.00000000 </v>
   <v>       0.26315789      -0.26315789       0.00000000 </v>
   <v>       0.28947368      -0.28947368       0.00000000 </v>
   <v>       0.31578947      -0.31578947       0.00000000 </v>
   <v>       0.34210526      -0.34210526       0.00000000 </v>
   <v>       0.36842105      -0.36842105       0.00000000 </v>
   <v>       0.39473684      -0.39473684       0.00000000 </v>
   <v>       0.42105263      -0.42105263       0.00000000 </v>
   <v>       0.44736842      -0.44736842       0.00000000 </v>
   <v>       0.47368421      -0.47368421       0.00000000 </v>
   <v>       0.50000000      -0.50000000       0.00000000 </v>
  </varray>
  <varray name="weights" >
   <v>       0.00714286 </v>
   <v>       0.00714286 </v>
   <v>       0.00714286 </v>
   <v>       0.00714286 </v>
   <v>       0.00714286 </v>
   <v>       0.00714286 </v>
   <v>       0.00714286 </v>
   <v>       0.00714286 </v>
   <v>       0.00714286 </v>
   <v>       0.00714286 </v>
   <v>       0.00714286 </v>
   <v>       0.00714286 </v>
   <v>       0.00714286 </v>
   <v>       0.00714286 </v>
   <v>       0.00714286 </v>
   <v>       0.00714286 </v>
   <v>       0.00714286 </v>
   <v>       0.00714286 </v>
   <v>       0.00714286 </v>
   <v>       0.00714286 </v>
   <v>       0.00714286 </v>
   <v>       0.00714286 </v>
   <v>       0.00714286 </v>
   <v>       0.00714286 </v>
   <v>       0.00714286 </v>
   <v>       0.00714286 </v>
   <v>       0.00714286 </v>
   <v>       0.00714286 </v>
   <v>       0.00714286 </v>
   <v>       0.00714286 </v>
   <v>       0.00714286 </v>
   <v>       0.00714286 </v>
   <v>       0.00714286 </v>
   <v>       0.00714286 </v>
   <v>       0.00714286 </v>
   <v>       0.00714286 </v>
   <v>       0.00714286 </v>
   <v>       0.00714286 </v>
   <v>       0.00714286 </v>
   <v>       0.00714286 </v>
   <v>       0.00714286 </v>
   <v>       0.00714286 </v>
   <v>       0.00714286 </v>
   <v>       0.00714286 </v>
   <v>       0.00714286 </v>
   <v>       0.00714286 </v>
   <v>       0.00714286 </v>
   <v>       0.00714286 </v>
   <v>       0.00714286 </v>
   <v>       0.00714286 </v>
   <v>       0.00714286 </v>
   <v>       0.00714286 </v>
   <v>       0.00714286 </v>
   <v>       0.00714286 </v>
   <v>       0.00714286 </v>
   <v>       0.00714286 </v>
   <v>       0.00714286 </v>
   <v>       0.00714286 </v>
   <v>       0.00714286 </v>
   <v>       0.00714286 </v>
   <v>       0.00714286 </v>
   <v>       0.00714286 </v>
   <v>       0.00714286 </v>
   <v>       0.00714286 </v>
   <v>       0.00714286 </v>
   <v>       0.00714286 </v>
   <v>       0.00714286 </v>
   <v>       0.00714286 </v>
   <v>       0.00714286 </v>
   <v>       0.00714286 </v>
   <v>       0.00714286 </v>
   <v>       0.00714286 </v>
   <v>       0.00714286 </v>
   <v>       0.00714286 </v>
   <v>       0.00714286 </v>
   <v>       0.00714286 </v>
   <v>       0.00714286 </v>
   <v>       0.00714286 </v>
   <v>       0.00714286 </v>
   <v>       0.00714286 </v>
   <v>       0.00714286 </v>
   <v>       0.00714286 </v>
   <v>       0.00714286 </v>
   <v>       0.00714286 </v>
   <v>       0.00714286 </v>
   <v>       0.00714286 </v>
   <v>       0.00714286 </v>
   <v>       0.00714286 </v>
   <v>       0.00714286 </v>
   <v>       0.00714286 </v>
   <v>       0.00714286 </v>
   <v>       0.00714286 </v>
   <v>       0.00714286 </v>
   <v>       0.00714286 </v>
   <v>       0.00714286 </v>
   <v>       0.00714286 </v>
   <v>       0.00714286 </v>
   <v>       0.00714286 </v>
   <v>       0.00714286 </v>
   <v>       0.00714286 </v>
   <v>       0.00714286 </v>
   <v>       0.00714286 </v>
   <v>       0.00714286 </v>
   <v>       0.00714286 </v>
   <v>       0.00714286 </v>
   <v>       0.00714286 </v>
   <v>       0.00714286 </v>
   <v>       0.00714286 </v>
   <v>       0.00714286 </v>
   <v>       0.00714286 </v>
   <v>       0.00714286 </v>
   <v>       0.00714286 </v>
   <v>       0.00714286 </v>
   <v>       0.00714286 </v>
   <v>       0.00714286 </v>
   <v>       0.00714286 </v>
   <v>       0.00714286 </v>
   <v>       0.00714286 </v>
   <v>       0.00714286 </v>
   <v>       0.00714286 </v>
   <v>       0.00714286 </v>
   <v>       0.00714286 </v>
   <v>       0.00714286 </v>
   <v>       0.00714286 </v>
   <v>       0.00714286 </v>
   <v>       0.00714286 </v>
   <v>       0.00714286 </v>
   <v>       0.00714286 </v>
   <v>       0.00714286 </v>
   <v>       0.00714286 </v>
   <v>       0.00714286 </v>
   <v>       0.00714286 </v>
   <v>       0.00714286 </v>
   <v>       0.00714286 </v>
   <v>       0.00714286 </v>
   <v>       0.00714286 </v>
   <v>       0.00714286 </v>
   <v>       0.00714286 </v>
   <v>       0.00714286 </v>
   <v>       0.00714286 </v>
  </varray>
 </kpoints>
 <parameters>
  <separator name="general" >
   <i type="string" name="SYSTEM">Ag2SeS</i>
   <i type="logical" name="LCOMPAT"> F  </i>
  </separator>
  <separator name="electronic" >
   <i type="string" name="PREC">accura</i>
   <i name="ENMAX">    500.00000000</i>
   <i name="ENAUG">    446.84200000</i>
   <i name="EDIFF">      0.00010000</i>
   <i type="int" name="IALGO">    38</i>
   <i type="int" name="IWAVPR">    10</i>
   <i type="int" name="NBANDS">    68</i>
   <i name="NELECT">    112.00000000</i>
   <i type="int" name="TURBO">     0</i>
   <i type="int" name="IRESTART">     0</i>
   <i type="int" name="NREBOOT">     0</i>
   <i type="int" name="NMIN">     0</i>
   <i name="EREF">      0.00000000</i>
   <separator name="electronic smearing" >
    <i type="int" name="ISMEAR">     1</i>
    <i name="SIGMA">      0.01000000</i>
    <i name="KSPACING">      0.50000000</i>
    <i type="logical" name="KGAMMA"> T  </i>
   </separator>
   <separator name="electronic projectors" >
    <i type="logical" name="LREAL"> F  </i>
    <v name="ROPT">      0.00000000      0.00000000      0.00000000</v>
    <i type="int" name="LMAXPAW">  -100</i>
    <i type="int" name="LMAXMIX">     2</i>
    <i type="logical" name="NLSPLINE"> F  </i>
   </separator>
   <separator name="electronic startup" >
    <i type="int" name="ISTART">     0</i>
    <i type="int" name="ICHARG">    11</i>
    <i type="int" name="INIWAV">     1</i>
   </separator>
   <separator name="electronic spin" >
    <i type="int" name="ISPIN">     1</i>
    <i type="logical" name="LNONCOLLINEAR"> F  </i>
    <v name="MAGMOM">      1.00000000      1.00000000      1.00000000      1.00000000      1.00000000      1.00000000      1.00000000      1.00000000      1.00000000      1.00000000      1.00000000      1.00000000</v>
    <i name="NUPDOWN">     -1.00000000</i>
    <i type="logical" name="LSORBIT"> F  </i>
    <v name="SAXIS">      0.00000000      0.00000000      1.00000000</v>
    <i type="logical" name="LSPIRAL"> F  </i>
    <v name="QSPIRAL">      0.00000000      0.00000000      0.00000000</v>
    <i type="logical" name="LZEROZ"> F  </i>
   </separator>
   <separator name="electronic exchange-correlation" >
    <i type="logical" name="LASPH"> F  </i>
    <i type="logical" name="LMETAGGA"> F  </i>
   </separator>
   <separator name="electronic convergence" >
    <i type="int" name="NELM">    60</i>
    <i type="int" name="NELMDL">     0</i>
    <i type="int" name="NELMIN">     2</i>
    <i name="ENINI">    500.00000000</i>
    <separator name="electronic convergence detail" >
     <i type="logical" name="LDIAG"> T  </i>
     <i type="logical" name="LSUBROT"> F  </i>
     <i name="WEIMIN">      0.00000000</i>
     <i name="EBREAK">      0.00000037</i>
     <i name="DEPER">      0.30000000</i>
     <i type="int" name="NRMM">     4</i>
     <i name="TIME">      0.40000000</i>
    </separator>
   </separator>
   <separator name="electronic mixer" >
    <i name="AMIX">      0.40000000</i>
    <i name="BMIX">      1.00000000</i>
    <i name="AMIN">      0.10000000</i>
    <i name="AMIX_MAG">      1.60000000</i>
    <i name="BMIX_MAG">      1.00000000</i>
    <separator name="electronic mixer details" >
     <i type="int" name="IMIX">     4</i>
     <i type="logical" name="MIXFIRST"> F  </i>
     <i type="int" name="MAXMIX">   -45</i>
     <i name="WC">    100.00000000</i>
     <i type="int" name="INIMIX">     1</i>
     <i type="int" name="MIXPRE">     1</i>
     <i type="int" name="MREMOVE">     5</i>
    </separator>
   </separator>
   <separator name="electronic dipolcorrection" >
    <i type="logical" name="LDIPOL"> F  </i>
    <i type="logical" name="LMONO"> F  </i>
    <i type="int" name="IDIPOL">     0</i>
    <i name="EPSILON">      1.00000000</i>
    <v name="DIPOL">   -100.00000000   -100.00000000   -100.00000000</v>
    <i name="EFIELD">      0.00000000</i>
   </separator>
  </separator>
  <separator name="grids" >
   <i type="int" name="NGX">    30</i>
   <i type="int" name="NGY">    50</i>
   <i type="int" name="NGZ">    60</i>
   <i type="int" name="NGXF">    60</i>
   <i type="int" name="NGYF">   100</i>
   <i type="int" name="NGZF">   120</i>
   <i type="logical" name="ADDGRID"> F  </i>
  </separator>
  <separator name="ionic" >
   <i type="int" name="NSW">     0</i>
   <i type="int" name="IBRION">    -1</i>
   <i type="int" name="MDALGO">     0</i>
   <i type="int" name="ISIF">     2</i>
   <i name="PSTRESS">      0.00000000</i>
   <i name="EDIFFG">      0.00100000</i>
   <i type="int" name="NFREE">     0</i>
   <i name="POTIM">      0.50000000</i>
   <i name="SMASS">     -3.00000000</i>
   <i name="SCALEE">      1.00000000</i>
  </separator>
  <separator name="ionic md" >
   <i name="TEBEG">      0.00010000</i>
   <i name="TEEND">      0.00010000</i>
   <i type="int" name="NBLOCK">     1</i>
   <i type="int" name="KBLOCK">     1</i>
   <i type="int" name="NPACO">   256</i>
   <i name="APACO">     16.00000000</i>
  </separator>
  <separator name="symmetry" >
   <i type="int" name="ISYM">     2</i>
   <i name="SYMPREC">      0.00001000</i>
  </separator>
  <separator name="dos" >
   <i type="int" name="LORBIT">     0</i>
   <v name="RWIGS">     -1.00000000     -1.00000000     -1.00000000</v>
   <i type="int" name="NEDOS">   301</i>
   <i name="EMIN">     10.00000000</i>
   <i name="EMAX">    -10.00000000</i>
   <i name="EFERMI">      0.00000000</i>
  </separator>
  <separator name="writing" >
   <i type="int" name="NWRITE">     2</i>
   <i type="logical" name="LWAVE"> F  </i>
   <i type="logical" name="LDOWNSAMPLE"> F  </i>
   <i type="logical" name="LCHARG"> T  </i>
   <i type="logical" name="LPARD"> F  </i>
   <i type="logical" name="LVTOT"> F  </i>
   <i type="logical" name="LVHAR"> T  </i>
   <i type="logical" name="LELF"> F  </i>
   <i type="logical" name="LOPTICS"> F  </i>
   <v name="STM">      0.00000000      0.00000000      0.00000000      0.00000000      0.00000000      0.00000000      0.00000000</v>
  </separator>
  <separator name="performance" >
   <i type="int" name="NPAR">     4</i>
   <i type="int" name="NSIM">     4</i>
   <i type="int" name="NBLK">    -1</i>
   <i type="logical" name="LPLANE"> T  </i>
   <i type="logical" name="LSCALAPACK"> T  </i>
   <i type="logical" name="LSCAAWARE"> F  </i>
   <i type="logical" name="LSCALU"> F  </i>
   <i type="logical" name="LASYNC"> F  </i>
   <i type="logical" name="LORBITALREAL"> F  </i>
  </separator>
  <separator name="miscellaneous" >
   <i type="int" name="IDIOT">     3</i>
   <i type="int" name="ISPECIAL">     0</i>
   <i type="logical" name="LMUSIC"> F  </i>
   <v name="POMASS">    107.86800000     78.96000000     32.06600000</v>
   <v name="DARWINR">      0.00000000      0.00000000      0.00000000</v>
   <v name="DARWINV">      1.00000000      1.00000000      1.00000000</v>
   <i type="logical" name="LCORR"> T  </i>
  </separator>
  <i type="logical" name="GGA_COMPAT"> T  </i>
  <i type="logical" name="LBERRY"> F  </i>
  <i type="int" name="ICORELEVEL">     0</i>
  <i type="logical" name="LDAU"> T  </i>
  <v type="int" name="LDAUTYPE">     2</v>
  <v type="int" name="LDAUL">     2</v>
  <v name="LDAUU">      2.00000000</v>
  <v name="LDAUJ">      0.00000000</v>
  <i type="int" name="LDAUPRINT">     0</i>
  <i type="int" name="I_CONSTRAINED_M">     0</i>
  <separator name="electronic exchange-correlation" >
   <i type="string" name="GGA">--</i>
   <i type="int" name="VOSKOWN">     0</i>
   <i type="logical" name="LHFCALC"> F  </i>
   <i type="string" name="PRECFOCK"></i>
   <i type="logical" name="LSYMGRAD"> F  </i>
   <i type="logical" name="LHFONE"> F  </i>
   <i type="logical" name="LRHFCALC"> F  </i>
   <i type="logical" name="LTHOMAS"> F  </i>
   <i type="logical" name="LMODELHF"> F  </i>
   <i name="ENCUT4O">     -1.00000000</i>
   <i type="int" name="EXXOEP">     0</i>
   <i type="int" name="FOURORBIT">     0</i>
   <i name="AEXX">      0.00000000</i>
   <i name="HFALPHA">      0.00000000</i>
   <i name="MCALPHA">      0.00000000</i>
   <i name="ALDAX">      1.00000000</i>
   <i name="AGGAX">      1.00000000</i>
   <i name="ALDAC">      1.00000000</i>
   <i name="AGGAC">      1.00000000</i>
   <i type="int" name="NKREDX">     1</i>
   <i type="int" name="NKREDY">     1</i>
   <i type="int" name="NKREDZ">     1</i>
   <i type="logical" name="SHIFTRED"> F  </i>
   <i type="logical" name="ODDONLY"> F  </i>
   <i type="logical" name="EVENONLY"> F  </i>
   <i type="int" name="LMAXFOCK">     0</i>
   <i type="int" name="NMAXFOCKAE">     0</i>
   <i type="logical" name="LFOCKAEDFT"> F  </i>
   <i name="HFSCREEN">      0.00000000</i>
   <i name="HFSCREENC">      0.00000000</i>
   <i type="int" name="NBANDSGWLOW">     0</i>
  </separator>
  <separator name="vdW DFT" >
   <i type="logical" name="LUSE_VDW"> F  </i>
   <i name="Zab_VDW">     -0.84910000</i>
   <i name="PARAM1">      0.12340000</i>
   <i name="PARAM2">      1.00000000</i>
   <i name="PARAM3">      0.00000000</i>
  </separator>
  <separator name="model GW" >
   <i type="int" name="MODEL_GW">     0</i>
   <i name="MODEL_EPS0">     10.93368321</i>
   <i name="MODEL_ALPHA">      1.00000000</i>
  </separator>
  <separator name="linear response parameters" >
   <i type="logical" name="LEPSILON"> F  </i>
   <i type="logical" name="LRPA"> F  </i>
   <i type="logical" name="LNABLA"> F  </i>
   <i type="logical" name="LVEL"> F  </i>
   <i type="int" name="KINTER">     0</i>
   <i name="CSHIFT">      0.10000000</i>
   <i name="OMEGAMAX">     -1.00000000</i>
   <i name="DEG_THRESHOLD">      0.00200000</i>
   <i name="RTIME">     -0.10000000</i>
   <i name="WPLASMAI">      0.00000000</i>
   <v name="DFIELD">      0.00000000      0.00000000      0.00000000</v>
   <v name="WPLASMA">      0.00000000      0.00000000      0.00000000      0.00000000      0.00000000      0.00000000      0.00000000      0.00000000      0.00000000</v>
  </separator>
  <separator name="orbital magnetization" >
   <i type="logical" name="NUCIND"> F  </i>
   <v name="MAGPOS">      0.00000000      0.00000000      0.00000000</v>
   <i type="logical" name="LNICSALL"> T  </i>
   <i type="logical" name="ORBITALMAG"> F  </i>
   <i type="logical" name="LMAGBLOCH"> F  </i>
   <i type="logical" name="LCHIMAG"> F  </i>
   <i type="logical" name="LGAUGE"> T  </i>
   <i type="int" name="MAGATOM">     0</i>
   <v name="MAGDIPOL">      0.00000000      0.00000000      0.00000000</v>
   <v name="AVECCONST">      0.00000000      0.00000000      0.00000000</v>
  </separator>
  <separator name="response functions" >
   <i type="logical" name="LADDER"> F  </i>
   <i type="logical" name="LRPAFORCE"> F  </i>
   <i type="logical" name="LFXC"> F  </i>
   <i type="logical" name="LHARTREE"> T  </i>
   <i type="int" name="IBSE">     0</i>
   <v type="int" name="KPOINT">    -1     0     0     0</v>
   <i type="logical" name="LTCTE"> F  </i>
   <i type="logical" name="LTETE"> F  </i>
   <i type="logical" name="LTRIPLET"> F  </i>
   <i type="logical" name="LFXCEPS"> F  </i>
   <i type="logical" name="LFXHEG"> F  </i>
   <i type="int" name="NATURALO">     2</i>
   <i type="logical" name="L2ORDER"> F  </i>
   <i type="logical" name="LMP2LT"> F  </i>
   <i type="logical" name="LUSEW"> F  </i>
   <i name="ENCUTGW">     -2.00000000</i>
   <i name="ENCUTGWSOFT">     -2.00000000</i>
   <i name="ENCUTLF">     -1.00000000</i>
   <i type="int" name="LMAXMP2">    -1</i>
   <i name="SCISSOR">      0.00000000</i>
   <i type="int" name="NOMEGA">     0</i>
   <i type="int" name="NOMEGAR">     0</i>
   <i type="int" name="NBANDSGW">    -1</i>
   <i type="int" name="NBANDSO">    -1</i>
   <i type="int" name="NBANDSV">    -1</i>
   <i type="int" name="NELM">     1</i>
   <i type="int" name="NELMHF">     1</i>
   <i type="int" name="DIM">     3</i>
   <i type="int" name="ANTIRES">     0</i>
   <i name="OMEGAMAX">    -30.00000000</i>
   <i name="OMEGAMIN">    -30.00000000</i>
   <i name="OMEGATL">   -200.00000000</i>
   <i type="int" name="OMEGAGRID">   140</i>
   <i name="CSHIFT">     -0.10000000</i>
   <i type="logical" name="SELFENERGY"> F  </i>
   <i type="logical" name="LSPECTRAL"> F  </i>
   <i type="logical" name="LSPECTRALGW"> F  </i>
   <i type="logical" name="LSINGLES"> F  </i>
   <i type="logical" name="LFERMIGW"> F  </i>
   <i type="logical" name="ODDONLYGW"> F  </i>
   <i type="logical" name="EVENONLYGW"> F  </i>
   <i type="int" name="NKREDLFX">     1</i>
   <i type="int" name="NKREDLFY">     1</i>
   <i type="int" name="NKREDLFZ">     1</i>
   <i type="int" name="MAXMEM">  2800</i>
   <i type="int" name="TELESCOPE">     0</i>
   <i type="int" name="TAUPAR">     1</i>
   <i type="int" name="OMEGAPAR">    -1</i>
   <i name="LAMBDA">      1.00000000</i>
  </separator>
  <separator name="External order field" >
   <i name="OFIELD_KAPPA">      0.00000000</i>
   <v name="OFIELD_K">      0.00000000      0.00000000      0.00000000</v>
   <i name="OFIELD_Q6_NEAR">      0.00000000</i>
   <i name="OFIELD_Q6_FAR">      0.00000000</i>
   <i name="OFIELD_A">      0.00000000</i>
  </separator>
 </parameters>
 <atominfo>
  <atoms>      12 </atoms>
  <types>       3 </types>
  <array name="atoms" >
   <dimension dim="1">ion</dimension>
   <field type="string">element</field>
   <field type="int">atomtype</field>
   <set>
    <rc><c>Ag</c><c>   1</c></rc>
    <rc><c>Ag</c><c>   1</c></rc>
    <rc><c>Ag</c><c>   1</c></rc>
    <rc><c>Ag</c><c>   1</c></rc>
    <rc><c>Ag</c><c>   1</c></rc>
    <rc><c>Ag</c><c>   1</c></rc>
    <rc><c>Ag</c><c>   1</c></rc>
    <rc><c>Ag</c><c>   1</c></rc>
    <rc><c>Se</c><c>   2</c></rc>
    <rc><c>S </c><c>   3</c></rc>
    <rc><c>S </c><c>   3</c></rc>
    <rc><c>S </c><c>   3</c></rc>
   </set>
  </array>
  <array name="atomtypes" >
   <dimension dim="1">type</dimension>
   <field type="int">atomspertype</field>
   <field type="string">element</field>
   <field>mass</field>
   <field>valence</field>
   <field type="string">pseudopotential</field>
   <set>
    <rc><c>   8</c><c>Ag</c><c>    107.86800000</c><c>     11.00000000</c><c>  PAW_PBE Ag 02Apr2005                  </c></rc>
    <rc><c>   1</c><c>Se</c><c>     78.96000000</c><c>      6.00000000</c><c>  PAW_PBE Se 06Sep2000                  </c></rc>
    <rc><c>   3</c><c>S </c><c>     32.06600000</c><c>      6.00000000</c><c>  PAW_PBE S 06Sep2000                   </c></rc>
   </set>
  </array>
 </atominfo>
 <structure name="initialpos" >
  <crystal>
   <varray name="basis" >
    <v>       4.17396650       0.04000356       0.03105857 </v>
    <v>       0.07725169       6.75470232      -0.04567415 </v>
    <v>      -2.66144762      -0.07158814       7.73742456 </v>
   </varray>
   <i name="volume">    218.67366414 </i>
   <varray name="rec_basis" >
    <v>       0.23898959      -0.00217754       0.08218528 </v>
    <v>      -0.00142563       0.14806727       0.00087957 </v>
    <v>      -0.00096774       0.00088278       0.12891727 </v>
   </varray>
  </crystal>
  <varray name="positions" >
   <v>       0.60290165       0.46910495       0.83919379 </v>
   <v>       0.34983914       0.53472779       0.13982921 </v>
   <v>       0.23325935       0.36147660       0.45850362 </v>
   <v>       0.42407940       0.98074604       0.66469326 </v>
   <v>       0.58606029       0.01369747       0.34296598 </v>
   <v>       0.78817888       0.64850067       0.55344556 </v>
   <v>       0.19658763       0.14411060       0.94376314 </v>
   <v>       0.79999140       0.84498749       0.05264226 </v>
   <v>       0.81577023       0.25032526       0.15021207 </v>
   <v>       0.17701423       0.74839369       0.36489485 </v>
   <v>       0.19497113       0.75420135       0.85139013 </v>
   <v>       0.83134669       0.24972808       0.63846614 </v>
  </varray>
 </structure>
 <calculation>
  <scstep>
   <time name="dav">    8.79    8.79</time>
   <time name="total">    8.83    8.83</time>
   <energy>
    <i name="alphaZ">    385.25820800 </i>
    <i name="ewald">  -8472.90304761 </i>
    <i name="hartreedc">  -1965.06843580 </i>
    <i name="XCdc">    -48.63334982 </i>
    <i name="pawpsdc">  11119.92964619 </i>
    <i name="pawaedc"> -10668.01730102 </i>
    <i name="eentropy">     -0.00001529 </i>
    <i name="bandstr">   1031.34979638 </i>
    <i name="atom">   9385.68939871 </i>
    <i name="e_fr_energy">    767.60489974 </i>
    <i name="e_wo_entrp">    767.60491503 </i>
    <i name="e_0_energy">    767.60490484 </i>
   </energy>
  </scstep>
  <scstep>
   <time name="dav">    9.23    9.23</time>
   <time name="total">    9.24    9.24</time>
   <energy>
    <i name="e_fr_energy">      8.03278856 </i>
    <i name="e_wo_entrp">      8.03285336 </i>
    <i name="e_0_energy">      8.03281016 </i>
   </energy>
  </scstep>
  <scstep>
   <time name="dav">    9.41    9.41</time>
   <time name="total">    9.42    9.42</time>
   <energy>
    <i name="e_fr_energy">    -29.88282173 </i>
    <i name="e_wo_entrp">    -29.88276916 </i>
    <i name="e_0_energy">    -29.88280421 </i>
   </energy>
  </scstep>
  <scstep>
   <time name="dav">    9.34    9.34</time>
   <time name="total">    9.35    9.35</time>
   <energy>
    <i name="e_fr_energy">    -30.54118612 </i>
    <i name="e_wo_entrp">    -30.54132765 </i>
    <i name="e_0_energy">    -30.54123330 </i>
   </energy>
  </scstep>
  <scstep>
   <time name="dav">    9.12    9.12</time>
   <time name="total">    9.13    9.13</time>
   <energy>
    <i name="e_fr_energy">    -30.55040078 </i>
    <i name="e_wo_entrp">    -30.55054618 </i>
    <i name="e_0_energy">    -30.55044925 </i>
   </energy>
  </scstep>
  <scstep>
   <time name="dav">    9.21    9.21</time>
   <time name="total">    9.22    9.22</time>
   <energy>
    <i name="e_fr_energy">    -30.55064421 </i>
    <i name="e_wo_entrp">    -30.55078987 </i>
    <i name="e_0_energy">    -30.55069277 </i>
   </energy>
  </scstep>
  <scstep>
   <time name="dav">    7.22    7.22</time>
   <time name="total">    7.22    7.22</time>
   <energy>
    <i name="alphaZ">    385.25820800 </i>
    <i name="ewald">  -8472.90304761 </i>
    <i name="hartreedc">  -1965.06843580 </i>
    <i name="XCdc">    -48.63334982 </i>
    <i name="pawpsdc">  11119.92964619 </i>
    <i name="pawaedc"> -10668.01730102 </i>
    <i name="eentropy">      0.00014567 </i>
    <i name="bandstr">    233.19408334 </i>
    <i name="atom">   9385.68939871 </i>
    <i name="e_fr_energy">    -30.55065233 </i>
    <i name="e_wo_entrp">    -30.55079800 </i>
    <i name="e_0_energy">    -30.55070089 </i>
   </energy>
  </scstep>
  <structure>
   <crystal>
    <varray name="basis" >
     <v>       4.17396650       0.04000356       0.03105857 </v>
     <v>       0.07725169       6.75470232      -0.04567415 </v>
     <v>      -2.66144762      -0.07158814       7.73742456 </v>
    </varray>
    <i name="volume">    218.67366414 </i>
    <varray name="rec_basis" >
     <v>       0.23898959      -0.00217754       0.08218528 </v>
     <v>      -0.00142563       0.14806727       0.00087957 </v>
     <v>      -0.00096774       0.00088278       0.12891727 </v>
    </varray>
   </crystal>
   <varray name="positions" >
    <v>       0.60290165       0.46910495       0.83919379 </v>
    <v>       0.34983914       0.53472779       0.13982921 </v>
    <v>       0.23325935       0.36147660       0.45850362 </v>
    <v>       0.42407940       0.98074604       0.66469326 </v>
    <v>       0.58606029       0.01369747       0.34296598 </v>
    <v>       0.78817888       0.64850067       0.55344556 </v>
    <v>       0.19658763       0.14411060       0.94376314 </v>
    <v>       0.79999140       0.84498749       0.05264226 </v>
    <v>       0.81577023       0.25032526       0.15021207 </v>
    <v>       0.17701423       0.74839369       0.36489485 </v>
    <v>       0.19497113       0.75420135       0.85139013 </v>
    <v>       0.83134669       0.24972808       0.63846614 </v>
   </varray>
  </structure>
  <varray name="forces" >
   <v>      -0.02615424      -0.08147788      -0.01274361 </v>
   <v>       0.02496464       0.17666811      -0.00398006 </v>
   <v>       0.03066000       0.09776604      -0.62355067 </v>
   <v>       0.01920655      -0.14412873      -0.02207959 </v>
   <v>      -0.01922043       0.16071248      -0.05962364 </v>
   <v>      -0.07582910      -0.04922726       0.64033269 </v>
   <v>       0.07712739      -0.01813103      -0.58148577 </v>
   <v>      -0.08675140       0.06689566       0.61291044 </v>
   <v>      -0.14096965      -0.12388941       0.30784743 </v>
   <v>       0.13057351      -0.05419979      -0.33521027 </v>
   <v>       0.18993245       0.05211925      -0.33503442 </v>
   <v>      -0.12353972      -0.08310744       0.41261746 </v>
  </varray>
  <varray name="stress" >
   <v>     -16.72692863       0.42023861       0.78461898 </v>
   <v>       0.42023842      -7.30803000      -2.69107403 </v>
   <v>       0.78461879      -2.69107431       5.03208735 </v>
  </varray>
  <energy>
   <i name="e_fr_energy">    -36.36706898 </i>
   <i name="e_wo_entrp">    -36.36711753 </i>
   <i name="e_0_energy">      0.00014567 </i>
  </energy>
  <time name="totalsc">   72.59   72.59</time>
  <eigenvalues>
   <array>
    <dimension dim="1">band</dimension>
    <dimension dim="2">kpoint</dimension>
    <dimension dim="3">spin</dimension>
    <field>eigene</field>
    <field>occ</field>
    <set>
     <set comment="spin 1">
      <set comment="kpoint 1">
       <r>   -6.6759    1.0000 </r>
       <r>   -6.1926    1.0000 </r>
       <r>   -6.0394    1.0000 </r>
       <r>   -5.9534    1.0000 </r>
       <r>    0.4808    1.0000 </r>
       <r>    0.5575    1.0000 </r>
       <r>    0.5753    1.0000 </r>
       <r>    0.7569    1.0000 </r>
       <r>    0.7855    1.0000 </r>
       <r>    1.0667    1.0000 </r>
       <r>    1.0850    1.0000 </r>
       <r>    1.1549    1.0000 </r>
       <r>    1.2083    1.0000 </r>
       <r>    1.2794    1.0000 </r>
       <r>    1.4945    1.0000 </r>
       <r>    1.5494    1.0000 </r>
       <r>    1.6190    1.0000 </r>
       <r>    1.6548    1.0000 </r>
       <r>    1.7412    1.0000 </r>
       <r>    1.7893    1.0000 </r>
       <r>    1.9765    1.0000 </r>
       <r>    2.0468    1.0000 </r>
       <r>    2.0842    1.0000 </r>
       <r>    2.1411    1.0000 </r>
       <r>    2.2471    1.0000 </r>
       <r>    2.2701    1.0000 </r>
       <r>    2.2849    1.0000 </r>
       <r>    2.3277    1.0000 </r>
       <r>    2.4055    1.0000 </r>
       <r>    2.4679    1.0000 </r>
       <r>    2.5015    1.0000 </r>
       <r>    2.5583    1.0000 </r>
       <r>    2.6028    1.0000 </r>
       <r>    2.6932    1.0000 </r>
       <r>    2.8143    1.0000 </r>
       <r>    2.8511    1.0000 </r>
       <r>    2.8944    1.0000 </r>
       <r>    2.9745    1.0000 </r>
       <r>    2.9934    1.0000 </r>
       <r>    3.0495    1.0000 </r>
       <r>    3.0926    1.0000 </r>
       <r>    3.1356    1.0000 </r>
       <r>    3.2536    1.0000 </r>
       <r>    3.3605    1.0000 </r>
       <r>    3.3766    1.0000 </r>
       <r>    3.5243    1.0000 </r>
       <r>    3.8043    1.0000 </r>
       <r>    3.8963    1.0000 </r>
       <r>    4.7026    1.0000 </r>
       <r>    4.9012    1.0000 </r>
       <r>    5.2688    1.0000 </r>
       <r>    5.7208    1.0000 </r>
       <r>    6.1790    1.0000 </r>
       <r>    6.4198    1.0000 </r>
       <r>    6.5472    1.0000 </r>
       <r>    6.7384    0.9840 </r>
       <r>    6.7548   -0.0054 </r>
       <r>    7.9903    0.0000 </r>
       <r>    9.2822    0.0000 </r>
       <r>    9.4677    0.0000 </r>
       <r>   10.0487    0.0000 </r>
       <r>   11.1683    0.0000 </r>
       <r>   11.5037    0.0000 </r>
       <r>   11.8258    0.0000 </r>
       <r>   12.0655    0.0000 </r>
       <r>   12.4262    0.0000 </r>
       <r>   13.2088    0.0000 </r>
       <r>   13.3118    0.0000 </r>
      </set>
      <set comment="kpoint 2">
       <r>   -6.6733    1.0000 </r>
       <r>   -6.1921    1.0000 </r>
       <r>   -6.0387    1.0000 </r>
       <r>   -5.9533    1.0000 </r>
       <r>    0.4805    1.0000 </r>
       <r>    0.5588    1.0000 </r>
       <r>    0.5779    1.0000 </r>
       <r>    0.7334    1.0000 </r>
       <r>    0.8191    1.0000 </r>
       <r>    1.0617    1.0000 </r>
       <r>    1.0829    1.0000 </r>
       <r>    1.1566    1.0000 </r>
       <r>    1.2119    1.0000 </r>
       <r>    1.2790    1.0000 </r>
       <r>    1.5002    1.0000 </r>
       <r>    1.5481    1.0000 </r>
       <r>    1.6158    1.0000 </r>
       <r>    1.6596    1.0000 </r>
       <r>    1.7394    1.0000 </r>
       <r>    1.7901    1.0000 </r>
       <r>    1.9752    1.0000 </r>
       <r>    2.0450    1.0000 </r>
       <r>    2.0733    1.0000 </r>
       <r>    2.1345    1.0000 </r>
       <r>    2.2336    1.0000 </r>
       <r>    2.2737    1.0000 </r>
       <r>    2.2794    1.0000 </r>
       <r>    2.3467    1.0000 </r>
       <r>    2.4134    1.0000 </r>
       <r>    2.4686    1.0000 </r>
       <r>    2.5026    1.0000 </r>
       <r>    2.5519    1.0000 </r>
       <r>    2.6072    1.0000 </r>
       <r>    2.6979    1.0000 </r>
       <r>    2.8111    1.0000 </r>
       <r>    2.8493    1.0000 </r>
       <r>    2.8973    1.0000 </r>
       <r>    2.9736    1.0000 </r>
       <r>    2.9922    1.0000 </r>
       <r>    3.0468    1.0000 </r>
       <r>    3.0924    1.0000 </r>
       <r>    3.1303    1.0000 </r>
       <r>    3.2463    1.0000 </r>
       <r>    3.3573    1.0000 </r>
       <r>    3.3852    1.0000 </r>
       <r>    3.5288    1.0000 </r>
       <r>    3.8113    1.0000 </r>
       <r>    3.8985    1.0000 </r>
       <r>    4.7024    1.0000 </r>
       <r>    4.8876    1.0000 </r>
       <r>    5.2485    1.0000 </r>
       <r>    5.7164    1.0000 </r>
       <r>    6.1585    1.0000 </r>
       <r>    6.3895    1.0000 </r>
       <r>    6.5785    1.0000 </r>
       <r>    6.7180    1.0003 </r>
       <r>    6.7655   -0.0098 </r>
       <r>    8.0329    0.0000 </r>
       <r>    9.3056    0.0000 </r>
       <r>    9.4945    0.0000 </r>
       <r>   10.0489    0.0000 </r>
       <r>   11.1551    0.0000 </r>
       <r>   11.4857    0.0000 </r>
       <r>   11.8110    0.0000 </r>
       <r>   12.0432    0.0000 </r>
       <r>   12.3901    0.0000 </r>
       <r>   13.2074    0.0000 </r>
       <r>   13.3365    0.0000 </r>
      </set>
      <set comment="kpoint 3">
       <r>   -6.6653    1.0000 </r>
       <r>   -6.1906    1.0000 </r>
       <r>   -6.0368    1.0000 </r>
       <r>   -5.9531    1.0000 </r>
       <r>    0.4793    1.0000 </r>
       <r>    0.5608    1.0000 </r>
       <r>    0.5863    1.0000 </r>
       <r>    0.7128    1.0000 </r>
       <r>    0.8698    1.0000 </r>
       <r>    1.0481    1.0000 </r>
       <r>    1.0777    1.0000 </r>
       <r>    1.1591    1.0000 </r>
       <r>    1.2215    1.0000 </r>
       <r>    1.2805    1.0000 </r>
       <r>    1.5156    1.0000 </r>
       <r>    1.5448    1.0000 </r>
       <r>    1.6094    1.0000 </r>
       <r>    1.6701    1.0000 </r>
       <r>    1.7345    1.0000 </r>
       <r>    1.7924    1.0000 </r>
       <r>    1.9705    1.0000 </r>
       <r>    2.0310    1.0000 </r>
       <r>    2.0557    1.0000 </r>
       <r>    2.1174    1.0000 </r>
       <r>    2.2087    1.0000 </r>
       <r>    2.2614    1.0000 </r>
       <r>    2.2875    1.0000 </r>
       <r>    2.3841    1.0000 </r>
       <r>    2.4295    1.0000 </r>
       <r>    2.4698    1.0000 </r>
       <r>    2.5062    1.0000 </r>
       <r>    2.5442    1.0000 </r>
       <r>    2.6141    1.0000 </r>
       <r>    2.7102    1.0000 </r>
       <r>    2.8010    1.0000 </r>
       <r>    2.8466    1.0000 </r>
       <r>    2.9040    1.0000 </r>
       <r>    2.9705    1.0000 </r>
       <r>    2.9889    1.0000 </r>
       <r>    3.0394    1.0000 </r>
       <r>    3.0913    1.0000 </r>
       <r>    3.1139    1.0000 </r>
       <r>    3.2344    1.0000 </r>
       <r>    3.3461    1.0000 </r>
       <r>    3.4043    1.0000 </r>
       <r>    3.5424    1.0000 </r>
       <r>    3.8309    1.0000 </r>
       <r>    3.9046    1.0000 </r>
       <r>    4.6998    1.0000 </r>
       <r>    4.8493    1.0000 </r>
       <r>    5.1951    1.0000 </r>
       <r>    5.7018    1.0000 </r>
       <r>    6.0914    1.0000 </r>
       <r>    6.3386    1.0000 </r>
       <r>    6.6321    1.0000 </r>
       <r>    6.6702    1.0000 </r>
       <r>    6.7995   -0.0000 </r>
       <r>    8.1504    0.0000 </r>
       <r>    9.3743    0.0000 </r>
       <r>    9.5691    0.0000 </r>
       <r>   10.0490    0.0000 </r>
       <r>   11.1171    0.0000 </r>
       <r>   11.4325    0.0000 </r>
       <r>   11.7664    0.0000 </r>
       <r>   11.9827    0.0000 </r>
       <r>   12.2930    0.0000 </r>
       <r>   13.1995    0.0000 </r>
       <r>   13.4017    0.0000 </r>
      </set>
      <set comment="kpoint 4">
       <r>   -6.6521    1.0000 </r>
       <r>   -6.1881    1.0000 </r>
       <r>   -6.0337    1.0000 </r>
       <r>   -5.9528    1.0000 </r>
       <r>    0.4773    1.0000 </r>
       <r>    0.5626    1.0000 </r>
       <r>    0.5998    1.0000 </r>
       <r>    0.7081    1.0000 </r>
       <r>    0.9232    1.0000 </r>
       <r>    1.0299    1.0000 </r>
       <r>    1.0703    1.0000 </r>
       <r>    1.1587    1.0000 </r>
       <r>    1.2344    1.0000 </r>
       <r>    1.2897    1.0000 </r>
       <r>    1.5292    1.0000 </r>
       <r>    1.5479    1.0000 </r>
       <r>    1.6032    1.0000 </r>
       <r>    1.6805    1.0000 </r>
       <r>    1.7285    1.0000 </r>
       <r>    1.7962    1.0000 </r>
       <r>    1.9588    1.0000 </r>
       <r>    1.9989    1.0000 </r>
       <r>    2.0522    1.0000 </r>
       <r>    2.0932    1.0000 </r>
       <r>    2.1836    1.0000 </r>
       <r>    2.2448    1.0000 </r>
       <r>    2.2965    1.0000 </r>
       <r>    2.4237    1.0000 </r>
       <r>    2.4404    1.0000 </r>
       <r>    2.4690    1.0000 </r>
       <r>    2.5180    1.0000 </r>
       <r>    2.5474    1.0000 </r>
       <r>    2.6187    1.0000 </r>
       <r>    2.7257    1.0000 </r>
       <r>    2.7848    1.0000 </r>
       <r>    2.8449    1.0000 </r>
       <r>    2.9103    1.0000 </r>
       <r>    2.9659    1.0000 </r>
       <r>    2.9831    1.0000 </r>
       <r>    3.0285    1.0000 </r>
       <r>    3.0799    1.0000 </r>
       <r>    3.0977    1.0000 </r>
       <r>    3.2284    1.0000 </r>
       <r>    3.3289    1.0000 </r>
       <r>    3.4218    1.0000 </r>
       <r>    3.5651    1.0000 </r>
       <r>    3.8593    1.0000 </r>
       <r>    3.9140    1.0000 </r>
       <r>    4.6874    1.0000 </r>
       <r>    4.7936    1.0000 </r>
       <r>    5.1270    1.0000 </r>
       <r>    5.6671    1.0000 </r>
       <r>    5.9961    1.0000 </r>
       <r>    6.2819    1.0000 </r>
       <r>    6.5985    1.0000 </r>
       <r>    6.6700    1.0000 </r>
       <r>    6.8837   -0.0000 </r>
       <r>    8.3206    0.0000 </r>
       <r>    9.4815    0.0000 </r>
       <r>    9.6755    0.0000 </r>
       <r>   10.0489    0.0000 </r>
       <r>   11.0602    0.0000 </r>
       <r>   11.3488    0.0000 </r>
       <r>   11.6912    0.0000 </r>
       <r>   11.8961    0.0000 </r>
       <r>   12.1593    0.0000 </r>
       <r>   13.1796    0.0000 </r>
       <r>   13.4793    0.0000 </r>
      </set>
      <set comment="kpoint 5">
       <r>   -6.6340    1.0000 </r>
       <r>   -6.1847    1.0000 </r>
       <r>   -6.0295    1.0000 </r>
       <r>   -5.9524    1.0000 </r>
       <r>    0.4741    1.0000 </r>
       <r>    0.5659    1.0000 </r>
       <r>    0.6157    1.0000 </r>
       <r>    0.7204    1.0000 </r>
       <r>    0.9693    1.0000 </r>
       <r>    1.0115    1.0000 </r>
       <r>    1.0629    1.0000 </r>
       <r>    1.1553    1.0000 </r>
       <r>    1.2508    1.0000 </r>
       <r>    1.3089    1.0000 </r>
       <r>    1.5235    1.0000 </r>
       <r>    1.5719    1.0000 </r>
       <r>    1.5988    1.0000 </r>
       <r>    1.6829    1.0000 </r>
       <r>    1.7280    1.0000 </r>
       <r>    1.8013    1.0000 </r>
       <r>    1.9321    1.0000 </r>
       <r>    1.9756    1.0000 </r>
       <r>    2.0505    1.0000 </r>
       <r>    2.0683    1.0000 </r>
       <r>    2.1616    1.0000 </r>
       <r>    2.2248    1.0000 </r>
       <r>    2.3041    1.0000 </r>
       <r>    2.4343    1.0000 </r>
       <r>    2.4637    1.0000 </r>
       <r>    2.4696    1.0000 </r>
       <r>    2.5412    1.0000 </r>
       <r>    2.5602    1.0000 </r>
       <r>    2.6213    1.0000 </r>
       <r>    2.7381    1.0000 </r>
       <r>    2.7669    1.0000 </r>
       <r>    2.8434    1.0000 </r>
       <r>    2.9103    1.0000 </r>
       <r>    2.9634    1.0000 </r>
       <r>    2.9743    1.0000 </r>
       <r>    3.0157    1.0000 </r>
       <r>    3.0487    1.0000 </r>
       <r>    3.0989    1.0000 </r>
       <r>    3.2279    1.0000 </r>
       <r>    3.3086    1.0000 </r>
       <r>    3.4331    1.0000 </r>
       <r>    3.5946    1.0000 </r>
       <r>    3.8909    1.0000 </r>
       <r>    3.9254    1.0000 </r>
       <r>    4.6533    1.0000 </r>
       <r>    4.7302    1.0000 </r>
       <r>    5.0662    1.0000 </r>
       <r>    5.5930    1.0000 </r>
       <r>    5.9199    1.0000 </r>
       <r>    6.2059    1.0000 </r>
       <r>    6.5259    1.0000 </r>
       <r>    6.6751    1.0000 </r>
       <r>    7.0165   -0.0000 </r>
       <r>    8.5230    0.0000 </r>
       <r>    9.6109    0.0000 </r>
       <r>    9.7839    0.0000 </r>
       <r>   10.0570    0.0000 </r>
       <r>   10.9942    0.0000 </r>
       <r>   11.2459    0.0000 </r>
       <r>   11.5866    0.0000 </r>
       <r>   11.7907    0.0000 </r>
       <r>   12.0148    0.0000 </r>
       <r>   13.1378    0.0000 </r>
       <r>   13.4377    0.0000 </r>
      </set>
      <set comment="kpoint 6">
       <r>   -6.6112    1.0000 </r>
       <r>   -6.1804    1.0000 </r>
       <r>   -6.0245    1.0000 </r>
       <r>   -5.9520    1.0000 </r>
       <r>    0.4703    1.0000 </r>
       <r>    0.5727    1.0000 </r>
       <r>    0.6323    1.0000 </r>
       <r>    0.7473    1.0000 </r>
       <r>    0.9782    1.0000 </r>
       <r>    1.0062    1.0000 </r>
       <r>    1.0649    1.0000 </r>
       <r>    1.1536    1.0000 </r>
       <r>    1.2746    1.0000 </r>
       <r>    1.3343    1.0000 </r>
       <r>    1.5133    1.0000 </r>
       <r>    1.5862    1.0000 </r>
       <r>    1.6083    1.0000 </r>
       <r>    1.6730    1.0000 </r>
       <r>    1.7374    1.0000 </r>
       <r>    1.8079    1.0000 </r>
       <r>    1.8982    1.0000 </r>
       <r>    1.9619    1.0000 </r>
       <r>    2.0330    1.0000 </r>
       <r>    2.0626    1.0000 </r>
       <r>    2.1432    1.0000 </r>
       <r>    2.2020    1.0000 </r>
       <r>    2.3096    1.0000 </r>
       <r>    2.4284    1.0000 </r>
       <r>    2.4719    1.0000 </r>
       <r>    2.4936    1.0000 </r>
       <r>    2.5667    1.0000 </r>
       <r>    2.5790    1.0000 </r>
       <r>    2.6229    1.0000 </r>
       <r>    2.7314    1.0000 </r>
       <r>    2.7623    1.0000 </r>
       <r>    2.8404    1.0000 </r>
       <r>    2.8978    1.0000 </r>
       <r>    2.9556    1.0000 </r>
       <r>    2.9727    1.0000 </r>
       <r>    3.0049    1.0000 </r>
       <r>    3.0182    1.0000 </r>
       <r>    3.1053    1.0000 </r>
       <r>    3.2291    1.0000 </r>
       <r>    3.2878    1.0000 </r>
       <r>    3.4379    1.0000 </r>
       <r>    3.6263    1.0000 </r>
       <r>    3.9167    1.0000 </r>
       <r>    3.9406    1.0000 </r>
       <r>    4.5915    1.0000 </r>
       <r>    4.6672    1.0000 </r>
       <r>    5.0243    1.0000 </r>
       <r>    5.4844    1.0000 </r>
       <r>    5.8839    1.0000 </r>
       <r>    6.1055    1.0000 </r>
       <r>    6.4548    1.0000 </r>
       <r>    6.6661    1.0000 </r>
       <r>    7.1760    0.0000 </r>
       <r>    8.7423    0.0000 </r>
       <r>    9.7296    0.0000 </r>
       <r>    9.8395    0.0000 </r>
       <r>   10.1081    0.0000 </r>
       <r>   10.9313    0.0000 </r>
       <r>   11.1449    0.0000 </r>
       <r>   11.4607    0.0000 </r>
       <r>   11.6696    0.0000 </r>
       <r>   11.8826    0.0000 </r>
       <r>   13.0616    0.0000 </r>
       <r>   13.2312    0.0000 </r>
      </set>
      <set comment="kpoint 7">
       <r>   -6.5842    1.0000 </r>
       <r>   -6.1753    1.0000 </r>
       <r>   -6.0189    1.0000 </r>
       <r>   -5.9516    1.0000 </r>
       <r>    0.4673    1.0000 </r>
       <r>    0.5829    1.0000 </r>
       <r>    0.6493    1.0000 </r>
       <r>    0.7846    1.0000 </r>
       <r>    0.9583    1.0000 </r>
       <r>    0.9987    1.0000 </r>
       <r>    1.0727    1.0000 </r>
       <r>    1.1639    1.0000 </r>
       <r>    1.3067    1.0000 </r>
       <r>    1.3619    1.0000 </r>
       <r>    1.5042    1.0000 </r>
       <r>    1.5793    1.0000 </r>
       <r>    1.6314    1.0000 </r>
       <r>    1.6616    1.0000 </r>
       <r>    1.7515    1.0000 </r>
       <r>    1.8162    1.0000 </r>
       <r>    1.8706    1.0000 </r>
       <r>    1.9499    1.0000 </r>
       <r>    2.0135    1.0000 </r>
       <r>    2.0663    1.0000 </r>
       <r>    2.1289    1.0000 </r>
       <r>    2.1780    1.0000 </r>
       <r>    2.3122    1.0000 </r>
       <r>    2.4257    1.0000 </r>
       <r>    2.4756    1.0000 </r>
       <r>    2.5153    1.0000 </r>
       <r>    2.5821    1.0000 </r>
       <r>    2.6023    1.0000 </r>
       <r>    2.6270    1.0000 </r>
       <r>    2.7107    1.0000 </r>
       <r>    2.7658    1.0000 </r>
       <r>    2.8348    1.0000 </r>
       <r>    2.8748    1.0000 </r>
       <r>    2.9382    1.0000 </r>
       <r>    2.9679    1.0000 </r>
       <r>    2.9929    1.0000 </r>
       <r>    3.0130    1.0000 </r>
       <r>    3.1155    1.0000 </r>
       <r>    3.2267    1.0000 </r>
       <r>    3.2703    1.0000 </r>
       <r>    3.4371    1.0000 </r>
       <r>    3.6546    1.0000 </r>
       <r>    3.9282    1.0000 </r>
       <r>    3.9608    1.0000 </r>
       <r>    4.5097    1.0000 </r>
       <r>    4.6143    1.0000 </r>
       <r>    4.9832    1.0000 </r>
       <r>    5.3869    1.0000 </r>
       <r>    5.8719    1.0000 </r>
       <r>    5.9881    1.0000 </r>
       <r>    6.3845    1.0000 </r>
       <r>    6.6490    1.0000 </r>
       <r>    7.3495    0.0000 </r>
       <r>    8.9677    0.0000 </r>
       <r>    9.7611    0.0000 </r>
       <r>    9.8420    0.0000 </r>
       <r>   10.2072    0.0000 </r>
       <r>   10.8783    0.0000 </r>
       <r>   11.0761    0.0000 </r>
       <r>   11.3314    0.0000 </r>
       <r>   11.5471    0.0000 </r>
       <r>   11.7794    0.0000 </r>
       <r>   12.9465    0.0000 </r>
       <r>   13.0507    0.0000 </r>
      </set>
      <set comment="kpoint 8">
       <r>   -6.5534    1.0000 </r>
       <r>   -6.1695    1.0000 </r>
       <r>   -6.0129    1.0000 </r>
       <r>   -5.9512    1.0000 </r>
       <r>    0.4664    1.0000 </r>
       <r>    0.5949    1.0000 </r>
       <r>    0.6666    1.0000 </r>
       <r>    0.8280    1.0000 </r>
       <r>    0.9346    1.0000 </r>
       <r>    0.9838    1.0000 </r>
       <r>    1.0692    1.0000 </r>
       <r>    1.1860    1.0000 </r>
       <r>    1.3407    1.0000 </r>
       <r>    1.3899    1.0000 </r>
       <r>    1.5000    1.0000 </r>
       <r>    1.5648    1.0000 </r>
       <r>    1.6303    1.0000 </r>
       <r>    1.6731    1.0000 </r>
       <r>    1.7668    1.0000 </r>
       <r>    1.8261    1.0000 </r>
       <r>    1.8562    1.0000 </r>
       <r>    1.9386    1.0000 </r>
       <r>    2.0041    1.0000 </r>
       <r>    2.0693    1.0000 </r>
       <r>    2.1195    1.0000 </r>
       <r>    2.1557    1.0000 </r>
       <r>    2.3123    1.0000 </r>
       <r>    2.4280    1.0000 </r>
       <r>    2.4797    1.0000 </r>
       <r>    2.5298    1.0000 </r>
       <r>    2.5867    1.0000 </r>
       <r>    2.6155    1.0000 </r>
       <r>    2.6382    1.0000 </r>
       <r>    2.6932    1.0000 </r>
       <r>    2.7645    1.0000 </r>
       <r>    2.8229    1.0000 </r>
       <r>    2.8492    1.0000 </r>
       <r>    2.9206    1.0000 </r>
       <r>    2.9482    1.0000 </r>
       <r>    2.9772    1.0000 </r>
       <r>    3.0368    1.0000 </r>
       <r>    3.1297    1.0000 </r>
       <r>    3.2144    1.0000 </r>
       <r>    3.2612    1.0000 </r>
       <r>    3.4322    1.0000 </r>
       <r>    3.6722    1.0000 </r>
       <r>    3.9341    1.0000 </r>
       <r>    3.9728    1.0000 </r>
       <r>    4.4229    1.0000 </r>
       <r>    4.5819    1.0000 </r>
       <r>    4.9069    1.0000 </r>
       <r>    5.3482    1.0000 </r>
       <r>    5.8479    1.0000 </r>
       <r>    5.8849    1.0000 </r>
       <r>    6.3109    1.0000 </r>
       <r>    6.6264    1.0000 </r>
       <r>    7.5301    0.0000 </r>
       <r>    9.1889    0.0000 </r>
       <r>    9.6780    0.0000 </r>
       <r>    9.8122    0.0000 </r>
       <r>   10.2835    0.0000 </r>
       <r>   10.8340    0.0000 </r>
       <r>   11.0585    0.0000 </r>
       <r>   11.2191    0.0000 </r>
       <r>   11.4612    0.0000 </r>
       <r>   11.7261    0.0000 </r>
       <r>   12.8094    0.0000 </r>
       <r>   12.8878    0.0000 </r>
      </set>
      <set comment="kpoint 9">
       <r>   -6.5194    1.0000 </r>
       <r>   -6.1630    1.0000 </r>
       <r>   -6.0071    1.0000 </r>
       <r>   -5.9510    1.0000 </r>
       <r>    0.4683    1.0000 </r>
       <r>    0.6057    1.0000 </r>
       <r>    0.6840    1.0000 </r>
       <r>    0.8721    1.0000 </r>
       <r>    0.9099    1.0000 </r>
       <r>    0.9707    1.0000 </r>
       <r>    1.0604    1.0000 </r>
       <r>    1.2099    1.0000 </r>
       <r>    1.3596    1.0000 </r>
       <r>    1.4232    1.0000 </r>
       <r>    1.4995    1.0000 </r>
       <r>    1.5469    1.0000 </r>
       <r>    1.6215    1.0000 </r>
       <r>    1.6925    1.0000 </r>
       <r>    1.7823    1.0000 </r>
       <r>    1.8353    1.0000 </r>
       <r>    1.8609    1.0000 </r>
       <r>    1.9307    1.0000 </r>
       <r>    2.0057    1.0000 </r>
       <r>    2.0701    1.0000 </r>
       <r>    2.1127    1.0000 </r>
       <r>    2.1405    1.0000 </r>
       <r>    2.3111    1.0000 </r>
       <r>    2.4331    1.0000 </r>
       <r>    2.4838    1.0000 </r>
       <r>    2.5368    1.0000 </r>
       <r>    2.5851    1.0000 </r>
       <r>    2.6145    1.0000 </r>
       <r>    2.6442    1.0000 </r>
       <r>    2.6898    1.0000 </r>
       <r>    2.7586    1.0000 </r>
       <r>    2.7991    1.0000 </r>
       <r>    2.8310    1.0000 </r>
       <r>    2.9052    1.0000 </r>
       <r>    2.9255    1.0000 </r>
       <r>    2.9652    1.0000 </r>
       <r>    3.0627    1.0000 </r>
       <r>    3.1478    1.0000 </r>
       <r>    3.1957    1.0000 </r>
       <r>    3.2561    1.0000 </r>
       <r>    3.4260    1.0000 </r>
       <r>    3.6727    1.0000 </r>
       <r>    3.9398    1.0000 </r>
       <r>    3.9690    1.0000 </r>
       <r>    4.3500    1.0000 </r>
       <r>    4.5719    1.0000 </r>
       <r>    4.7932    1.0000 </r>
       <r>    5.3724    1.0000 </r>
       <r>    5.7329    1.0000 </r>
       <r>    5.8766    1.0000 </r>
       <r>    6.2308    1.0000 </r>
       <r>    6.5994    1.0000 </r>
       <r>    7.7136    0.0000 </r>
       <r>    9.3845    0.0000 </r>
       <r>    9.5526    0.0000 </r>
       <r>    9.7147    0.0000 </r>
       <r>   10.2656    0.0000 </r>
       <r>   10.7906    0.0000 </r>
       <r>   11.0442    0.0000 </r>
       <r>   11.1785    0.0000 </r>
       <r>   11.4310    0.0000 </r>
       <r>   11.7711    0.0000 </r>
       <r>   12.6704    0.0000 </r>
       <r>   12.7418    0.0000 </r>
      </set>
      <set comment="kpoint 10">
       <r>   -6.4828    1.0000 </r>
       <r>   -6.1560    1.0000 </r>
       <r>   -6.0016    1.0000 </r>
       <r>   -5.9508    1.0000 </r>
       <r>    0.4730    1.0000 </r>
       <r>    0.6115    1.0000 </r>
       <r>    0.7009    1.0000 </r>
       <r>    0.8843    1.0000 </r>
       <r>    0.9069    1.0000 </r>
       <r>    0.9685    1.0000 </r>
       <r>    1.0562    1.0000 </r>
       <r>    1.2312    1.0000 </r>
       <r>    1.3587    1.0000 </r>
       <r>    1.4545    1.0000 </r>
       <r>    1.4874    1.0000 </r>
       <r>    1.5457    1.0000 </r>
       <r>    1.6195    1.0000 </r>
       <r>    1.7087    1.0000 </r>
       <r>    1.7966    1.0000 </r>
       <r>    1.8456    1.0000 </r>
       <r>    1.8817    1.0000 </r>
       <r>    1.9312    1.0000 </r>
       <r>    2.0147    1.0000 </r>
       <r>    2.0702    1.0000 </r>
       <r>    2.1051    1.0000 </r>
       <r>    2.1378    1.0000 </r>
       <r>    2.3098    1.0000 </r>
       <r>    2.4379    1.0000 </r>
       <r>    2.4859    1.0000 </r>
       <r>    2.5363    1.0000 </r>
       <r>    2.5821    1.0000 </r>
       <r>    2.6036    1.0000 </r>
       <r>    2.6402    1.0000 </r>
       <r>    2.6955    1.0000 </r>
       <r>    2.7486    1.0000 </r>
       <r>    2.7727    1.0000 </r>
       <r>    2.8179    1.0000 </r>
       <r>    2.8899    1.0000 </r>
       <r>    2.9065    1.0000 </r>
       <r>    2.9546    1.0000 </r>
       <r>    3.0816    1.0000 </r>
       <r>    3.1529    1.0000 </r>
       <r>    3.1944    1.0000 </r>
       <r>    3.2454    1.0000 </r>
       <r>    3.4226    1.0000 </r>
       <r>    3.6569    1.0000 </r>
       <r>    3.9095    1.0000 </r>
       <r>    3.9842    1.0000 </r>
       <r>    4.3053    1.0000 </r>
       <r>    4.5792    1.0000 </r>
       <r>    4.6682    1.0000 </r>
       <r>    5.4320    1.0000 </r>
       <r>    5.6195    1.0000 </r>
       <r>    5.8747    1.0000 </r>
       <r>    6.1433    1.0000 </r>
       <r>    6.5689    1.0000 </r>
       <r>    7.8969    0.0000 </r>
       <r>    9.3690    0.0000 </r>
       <r>    9.4745    0.0000 </r>
       <r>    9.6777    0.0000 </r>
       <r>   10.1518    0.0000 </r>
       <r>   10.7229    0.0000 </r>
       <r>   10.9860    0.0000 </r>
       <r>   11.2422    0.0000 </r>
       <r>   11.4514    0.0000 </r>
       <r>   11.9358    0.0000 </r>
       <r>   12.5429    0.0000 </r>
       <r>   12.6160    0.0000 </r>
      </set>
      <set comment="kpoint 11">
       <r>   -6.4444    1.0000 </r>
       <r>   -6.1485    1.0000 </r>
       <r>   -5.9971    1.0000 </r>
       <r>   -5.9508    1.0000 </r>
       <r>    0.4797    1.0000 </r>
       <r>    0.6090    1.0000 </r>
       <r>    0.7168    1.0000 </r>
       <r>    0.8606    1.0000 </r>
       <r>    0.9183    1.0000 </r>
       <r>    0.9814    1.0000 </r>
       <r>    1.0686    1.0000 </r>
       <r>    1.2498    1.0000 </r>
       <r>    1.3464    1.0000 </r>
       <r>    1.4371    1.0000 </r>
       <r>    1.5025    1.0000 </r>
       <r>    1.5574    1.0000 </r>
       <r>    1.6259    1.0000 </r>
       <r>    1.7235    1.0000 </r>
       <r>    1.8090    1.0000 </r>
       <r>    1.8613    1.0000 </r>
       <r>    1.9081    1.0000 </r>
       <r>    1.9440    1.0000 </r>
       <r>    2.0257    1.0000 </r>
       <r>    2.0696    1.0000 </r>
       <r>    2.1060    1.0000 </r>
       <r>    2.1430    1.0000 </r>
       <r>    2.3091    1.0000 </r>
       <r>    2.4393    1.0000 </r>
       <r>    2.4823    1.0000 </r>
       <r>    2.5309    1.0000 </r>
       <r>    2.5766    1.0000 </r>
       <r>    2.5941    1.0000 </r>
       <r>    2.6297    1.0000 </r>
       <r>    2.6971    1.0000 </r>
       <r>    2.7289    1.0000 </r>
       <r>    2.7588    1.0000 </r>
       <r>    2.8069    1.0000 </r>
       <r>    2.8736    1.0000 </r>
       <r>    2.8941    1.0000 </r>
       <r>    2.9438    1.0000 </r>
       <r>    3.0898    1.0000 </r>
       <r>    3.1317    1.0000 </r>
       <r>    3.2208    1.0000 </r>
       <r>    3.2258    1.0000 </r>
       <r>    3.4262    1.0000 </r>
       <r>    3.6347    1.0000 </r>
       <r>    3.8442    1.0000 </r>
       <r>    4.0234    1.0000 </r>
       <r>    4.2882    1.0000 </r>
       <r>    4.5405    1.0000 </r>
       <r>    4.6039    1.0000 </r>
       <r>    5.4783    1.0000 </r>
       <r>    5.5508    1.0000 </r>
       <r>    5.8680    1.0000 </r>
       <r>    6.0506    1.0000 </r>
       <r>    6.5357    1.0000 </r>
       <r>    8.0773    0.0000 </r>
       <r>    9.1822    0.0000 </r>
       <r>    9.3347    0.0000 </r>
       <r>    9.7556    0.0000 </r>
       <r>   10.0346    0.0000 </r>
       <r>   10.6196    0.0000 </r>
       <r>   10.9569    0.0000 </r>
       <r>   11.2774    0.0000 </r>
       <r>   11.5650    0.0000 </r>
       <r>   12.1454    0.0000 </r>
       <r>   12.4463    0.0000 </r>
       <r>   12.5324    0.0000 </r>
      </set>
      <set comment="kpoint 12">
       <r>   -6.4049    1.0000 </r>
       <r>   -6.1408    1.0000 </r>
       <r>   -5.9939    1.0000 </r>
       <r>   -5.9508    1.0000 </r>
       <r>    0.4876    1.0000 </r>
       <r>    0.5970    1.0000 </r>
       <r>    0.7298    1.0000 </r>
       <r>    0.8372    1.0000 </r>
       <r>    0.9213    1.0000 </r>
       <r>    0.9927    1.0000 </r>
       <r>    1.1027    1.0000 </r>
       <r>    1.2666    1.0000 </r>
       <r>    1.3249    1.0000 </r>
       <r>    1.4052    1.0000 </r>
       <r>    1.5252    1.0000 </r>
       <r>    1.5667    1.0000 </r>
       <r>    1.6407    1.0000 </r>
       <r>    1.7382    1.0000 </r>
       <r>    1.8212    1.0000 </r>
       <r>    1.8819    1.0000 </r>
       <r>    1.9333    1.0000 </r>
       <r>    1.9655    1.0000 </r>
       <r>    2.0379    1.0000 </r>
       <r>    2.0690    1.0000 </r>
       <r>    2.1215    1.0000 </r>
       <r>    2.1518    1.0000 </r>
       <r>    2.3090    1.0000 </r>
       <r>    2.4350    1.0000 </r>
       <r>    2.4717    1.0000 </r>
       <r>    2.5206    1.0000 </r>
       <r>    2.5668    1.0000 </r>
       <r>    2.5922    1.0000 </r>
       <r>    2.6155    1.0000 </r>
       <r>    2.6918    1.0000 </r>
       <r>    2.7083    1.0000 </r>
       <r>    2.7497    1.0000 </r>
       <r>    2.7991    1.0000 </r>
       <r>    2.8603    1.0000 </r>
       <r>    2.8849    1.0000 </r>
       <r>    2.9319    1.0000 </r>
       <r>    3.0866    1.0000 </r>
       <r>    3.1077    1.0000 </r>
       <r>    3.1873    1.0000 </r>
       <r>    3.2564    1.0000 </r>
       <r>    3.4368    1.0000 </r>
       <r>    3.6182    1.0000 </r>
       <r>    3.7704    1.0000 </r>
       <r>    4.0736    1.0000 </r>
       <r>    4.2882    1.0000 </r>
       <r>    4.4325    1.0000 </r>
       <r>    4.6226    1.0000 </r>
       <r>    5.4139    1.0000 </r>
       <r>    5.6178    1.0000 </r>
       <r>    5.8480    1.0000 </r>
       <r>    5.9626    1.0000 </r>
       <r>    6.5006    1.0000 </r>
       <r>    8.2520    0.0000 </r>
       <r>    8.9689    0.0000 </r>
       <r>    9.1814    0.0000 </r>
       <r>    9.6482    0.0000 </r>
       <r>   10.0745    0.0000 </r>
       <r>   10.5058    0.0000 </r>
       <r>   10.9490    0.0000 </r>
       <r>   11.3026    0.0000 </r>
       <r>   11.7279    0.0000 </r>
       <r>   12.1994    0.0000 </r>
       <r>   12.3823    0.0000 </r>
       <r>   12.6538    0.0000 </r>
      </set>
      <set comment="kpoint 13">
       <r>   -6.3652    1.0000 </r>
       <r>   -6.1328    1.0000 </r>
       <r>   -5.9924    1.0000 </r>
       <r>   -5.9510    1.0000 </r>
       <r>    0.4955    1.0000 </r>
       <r>    0.5780    1.0000 </r>
       <r>    0.7370    1.0000 </r>
       <r>    0.8138    1.0000 </r>
       <r>    0.9277    1.0000 </r>
       <r>    1.0026    1.0000 </r>
       <r>    1.1465    1.0000 </r>
       <r>    1.2832    1.0000 </r>
       <r>    1.2930    1.0000 </r>
       <r>    1.3850    1.0000 </r>
       <r>    1.5397    1.0000 </r>
       <r>    1.5715    1.0000 </r>
       <r>    1.6621    1.0000 </r>
       <r>    1.7510    1.0000 </r>
       <r>    1.8348    1.0000 </r>
       <r>    1.9059    1.0000 </r>
       <r>    1.9585    1.0000 </r>
       <r>    1.9813    1.0000 </r>
       <r>    2.0523    1.0000 </r>
       <r>    2.0795    1.0000 </r>
       <r>    2.1413    1.0000 </r>
       <r>    2.1650    1.0000 </r>
       <r>    2.3088    1.0000 </r>
       <r>    2.4247    1.0000 </r>
       <r>    2.4585    1.0000 </r>
       <r>    2.5048    1.0000 </r>
       <r>    2.5458    1.0000 </r>
       <r>    2.5935    1.0000 </r>
       <r>    2.6094    1.0000 </r>
       <r>    2.6798    1.0000 </r>
       <r>    2.6959    1.0000 </r>
       <r>    2.7373    1.0000 </r>
       <r>    2.7956    1.0000 </r>
       <r>    2.8510    1.0000 </r>
       <r>    2.8757    1.0000 </r>
       <r>    2.9187    1.0000 </r>
       <r>    3.0721    1.0000 </r>
       <r>    3.0878    1.0000 </r>
       <r>    3.1446    1.0000 </r>
       <r>    3.2799    1.0000 </r>
       <r>    3.4534    1.0000 </r>
       <r>    3.6109    1.0000 </r>
       <r>    3.7083    1.0000 </r>
       <r>    4.1294    1.0000 </r>
       <r>    4.2945    1.0000 </r>
       <r>    4.3411    1.0000 </r>
       <r>    4.6366    1.0000 </r>
       <r>    5.3493    1.0000 </r>
       <r>    5.6970    1.0000 </r>
       <r>    5.7999    1.0000 </r>
       <r>    5.9068    1.0000 </r>
       <r>    6.4648    1.0000 </r>
       <r>    8.4164    0.0000 </r>
       <r>    8.7502    0.0000 </r>
       <r>    9.0378    0.0000 </r>
       <r>    9.4502    0.0000 </r>
       <r>   10.1592    0.0000 </r>
       <r>   10.4021    0.0000 </r>
       <r>   10.9572    0.0000 </r>
       <r>   11.3487    0.0000 </r>
       <r>   11.8923    0.0000 </r>
       <r>   12.1238    0.0000 </r>
       <r>   12.3226    0.0000 </r>
       <r>   12.9636    0.0000 </r>
      </set>
      <set comment="kpoint 14">
       <r>   -6.3264    1.0000 </r>
       <r>   -6.1247    1.0000 </r>
       <r>   -5.9931    1.0000 </r>
       <r>   -5.9512    1.0000 </r>
       <r>    0.5017    1.0000 </r>
       <r>    0.5561    1.0000 </r>
       <r>    0.7353    1.0000 </r>
       <r>    0.7916    1.0000 </r>
       <r>    0.9398    1.0000 </r>
       <r>    1.0159    1.0000 </r>
       <r>    1.1871    1.0000 </r>
       <r>    1.2578    1.0000 </r>
       <r>    1.3011    1.0000 </r>
       <r>    1.3783    1.0000 </r>
       <r>    1.5469    1.0000 </r>
       <r>    1.5734    1.0000 </r>
       <r>    1.6870    1.0000 </r>
       <r>    1.7604    1.0000 </r>
       <r>    1.8504    1.0000 </r>
       <r>    1.9311    1.0000 </r>
       <r>    1.9786    1.0000 </r>
       <r>    1.9932    1.0000 </r>
       <r>    2.0612    1.0000 </r>
       <r>    2.1088    1.0000 </r>
       <r>    2.1580    1.0000 </r>
       <r>    2.1835    1.0000 </r>
       <r>    2.3062    1.0000 </r>
       <r>    2.4104    1.0000 </r>
       <r>    2.4460    1.0000 </r>
       <r>    2.4872    1.0000 </r>
       <r>    2.5119    1.0000 </r>
       <r>    2.5907    1.0000 </r>
       <r>    2.6163    1.0000 </r>
       <r>    2.6657    1.0000 </r>
       <r>    2.6881    1.0000 </r>
       <r>    2.7237    1.0000 </r>
       <r>    2.7961    1.0000 </r>
       <r>    2.8426    1.0000 </r>
       <r>    2.8645    1.0000 </r>
       <r>    2.9053    1.0000 </r>
       <r>    3.0527    1.0000 </r>
       <r>    3.0685    1.0000 </r>
       <r>    3.1027    1.0000 </r>
       <r>    3.2871    1.0000 </r>
       <r>    3.4778    1.0000 </r>
       <r>    3.5924    1.0000 </r>
       <r>    3.6882    1.0000 </r>
       <r>    4.1802    1.0000 </r>
       <r>    4.2584    1.0000 </r>
       <r>    4.3205    1.0000 </r>
       <r>    4.6372    1.0000 </r>
       <r>    5.3038    1.0000 </r>
       <r>    5.6773    1.0000 </r>
       <r>    5.8082    1.0000 </r>
       <r>    5.8921    1.0000 </r>
       <r>    6.4296    1.0000 </r>
       <r>    8.5213    0.0000 </r>
       <r>    8.5802    0.0000 </r>
       <r>    8.9099    0.0000 </r>
       <r>    9.2513    0.0000 </r>
       <r>   10.1965    0.0000 </r>
       <r>   10.3218    0.0000 </r>
       <r>   10.9880    0.0000 </r>
       <r>   11.4151    0.0000 </r>
       <r>   12.0217    0.0000 </r>
       <r>   12.0455    0.0000 </r>
       <r>   12.2936    0.0000 </r>
       <r>   13.3153    0.0000 </r>
      </set>
      <set comment="kpoint 15">
       <r>   -6.2896    1.0000 </r>
       <r>   -6.1164    1.0000 </r>
       <r>   -5.9963    1.0000 </r>
       <r>   -5.9514    1.0000 </r>
       <r>    0.5023    1.0000 </r>
       <r>    0.5383    1.0000 </r>
       <r>    0.7238    1.0000 </r>
       <r>    0.7725    1.0000 </r>
       <r>    0.9560    1.0000 </r>
       <r>    1.0333    1.0000 </r>
       <r>    1.1970    1.0000 </r>
       <r>    1.2485    1.0000 </r>
       <r>    1.3215    1.0000 </r>
       <r>    1.3818    1.0000 </r>
       <r>    1.5495    1.0000 </r>
       <r>    1.5731    1.0000 </r>
       <r>    1.7104    1.0000 </r>
       <r>    1.7679    1.0000 </r>
       <r>    1.8670    1.0000 </r>
       <r>    1.9542    1.0000 </r>
       <r>    1.9845    1.0000 </r>
       <r>    2.0157    1.0000 </r>
       <r>    2.0681    1.0000 </r>
       <r>    2.1412    1.0000 </r>
       <r>    2.1765    1.0000 </r>
       <r>    2.2015    1.0000 </r>
       <r>    2.2991    1.0000 </r>
       <r>    2.3948    1.0000 </r>
       <r>    2.4343    1.0000 </r>
       <r>    2.4690    1.0000 </r>
       <r>    2.4776    1.0000 </r>
       <r>    2.5843    1.0000 </r>
       <r>    2.6234    1.0000 </r>
       <r>    2.6526    1.0000 </r>
       <r>    2.6811    1.0000 </r>
       <r>    2.7136    1.0000 </r>
       <r>    2.7989    1.0000 </r>
       <r>    2.8315    1.0000 </r>
       <r>    2.8499    1.0000 </r>
       <r>    2.8955    1.0000 </r>
       <r>    3.0264    1.0000 </r>
       <r>    3.0529    1.0000 </r>
       <r>    3.0720    1.0000 </r>
       <r>    3.2785    1.0000 </r>
       <r>    3.5022    1.0000 </r>
       <r>    3.5650    1.0000 </r>
       <r>    3.7146    1.0000 </r>
       <r>    4.1663    1.0000 </r>
       <r>    4.2624    1.0000 </r>
       <r>    4.3422    1.0000 </r>
       <r>    4.6199    1.0000 </r>
       <r>    5.2760    1.0000 </r>
       <r>    5.5913    1.0000 </r>
       <r>    5.8277    1.0000 </r>
       <r>    5.9329    1.0000 </r>
       <r>    6.3964    1.0000 </r>
       <r>    8.3422    0.0000 </r>
       <r>    8.6412    0.0000 </r>
       <r>    8.8400    0.0000 </r>
       <r>    9.0812    0.0000 </r>
       <r>   10.1715    0.0000 </r>
       <r>   10.2735    0.0000 </r>
       <r>   11.0395    0.0000 </r>
       <r>   11.4921    0.0000 </r>
       <r>   11.9518    0.0000 </r>
       <r>   12.1125    0.0000 </r>
       <r>   12.3279    0.0000 </r>
       <r>   13.7007    0.0000 </r>
      </set>
      <set comment="kpoint 16">
       <r>   -6.2561    1.0000 </r>
       <r>   -6.1078    1.0000 </r>
       <r>   -6.0020    1.0000 </r>
       <r>   -5.9517    1.0000 </r>
       <r>    0.4917    1.0000 </r>
       <r>    0.5325    1.0000 </r>
       <r>    0.7061    1.0000 </r>
       <r>    0.7569    1.0000 </r>
       <r>    0.9730    1.0000 </r>
       <r>    1.0532    1.0000 </r>
       <r>    1.1704    1.0000 </r>
       <r>    1.2729    1.0000 </r>
       <r>    1.3442    1.0000 </r>
       <r>    1.3933    1.0000 </r>
       <r>    1.5495    1.0000 </r>
       <r>    1.5704    1.0000 </r>
       <r>    1.7237    1.0000 </r>
       <r>    1.7805    1.0000 </r>
       <r>    1.8840    1.0000 </r>
       <r>    1.9680    1.0000 </r>
       <r>    1.9937    1.0000 </r>
       <r>    2.0374    1.0000 </r>
       <r>    2.0737    1.0000 </r>
       <r>    2.1668    1.0000 </r>
       <r>    2.2001    1.0000 </r>
       <r>    2.2143    1.0000 </r>
       <r>    2.2883    1.0000 </r>
       <r>    2.3784    1.0000 </r>
       <r>    2.4210    1.0000 </r>
       <r>    2.4361    1.0000 </r>
       <r>    2.4703    1.0000 </r>
       <r>    2.5739    1.0000 </r>
       <r>    2.6214    1.0000 </r>
       <r>    2.6431    1.0000 </r>
       <r>    2.6746    1.0000 </r>
       <r>    2.7095    1.0000 </r>
       <r>    2.7987    1.0000 </r>
       <r>    2.8187    1.0000 </r>
       <r>    2.8322    1.0000 </r>
       <r>    2.8938    1.0000 </r>
       <r>    2.9984    1.0000 </r>
       <r>    3.0335    1.0000 </r>
       <r>    3.0634    1.0000 </r>
       <r>    3.2603    1.0000 </r>
       <r>    3.4908    1.0000 </r>
       <r>    3.5793    1.0000 </r>
       <r>    3.7631    1.0000 </r>
       <r>    4.1181    1.0000 </r>
       <r>    4.2993    1.0000 </r>
       <r>    4.3755    1.0000 </r>
       <r>    4.5836    1.0000 </r>
       <r>    5.2610    1.0000 </r>
       <r>    5.5135    1.0000 </r>
       <r>    5.8158    1.0000 </r>
       <r>    6.0021    1.0000 </r>
       <r>    6.3668    1.0000 </r>
       <r>    8.1779    0.0000 </r>
       <r>    8.5613    0.0000 </r>
       <r>    8.8668    0.0000 </r>
       <r>    8.9910    0.0000 </r>
       <r>   10.1196    0.0000 </r>
       <r>   10.2351    0.0000 </r>
       <r>   11.0990    0.0000 </r>
       <r>   11.5678    0.0000 </r>
       <r>   11.8813    0.0000 </r>
       <r>   12.1351    0.0000 </r>
       <r>   12.4175    0.0000 </r>
       <r>   14.0479    0.0000 </r>
      </set>
      <set comment="kpoint 17">
       <r>   -6.2274    1.0000 </r>
       <r>   -6.0985    1.0000 </r>
       <r>   -6.0102    1.0000 </r>
       <r>   -5.9520    1.0000 </r>
       <r>    0.4761    1.0000 </r>
       <r>    0.5339    1.0000 </r>
       <r>    0.6876    1.0000 </r>
       <r>    0.7437    1.0000 </r>
       <r>    0.9879    1.0000 </r>
       <r>    1.0728    1.0000 </r>
       <r>    1.1442    1.0000 </r>
       <r>    1.2969    1.0000 </r>
       <r>    1.3675    1.0000 </r>
       <r>    1.4098    1.0000 </r>
       <r>    1.5473    1.0000 </r>
       <r>    1.5656    1.0000 </r>
       <r>    1.7222    1.0000 </r>
       <r>    1.8028    1.0000 </r>
       <r>    1.9013    1.0000 </r>
       <r>    1.9717    1.0000 </r>
       <r>    2.0047    1.0000 </r>
       <r>    2.0567    1.0000 </r>
       <r>    2.0790    1.0000 </r>
       <r>    2.1835    1.0000 </r>
       <r>    2.2174    1.0000 </r>
       <r>    2.2234    1.0000 </r>
       <r>    2.2806    1.0000 </r>
       <r>    2.3613    1.0000 </r>
       <r>    2.4014    1.0000 </r>
       <r>    2.4170    1.0000 </r>
       <r>    2.4737    1.0000 </r>
       <r>    2.5624    1.0000 </r>
       <r>    2.6059    1.0000 </r>
       <r>    2.6395    1.0000 </r>
       <r>    2.6709    1.0000 </r>
       <r>    2.7082    1.0000 </r>
       <r>    2.7848    1.0000 </r>
       <r>    2.8062    1.0000 </r>
       <r>    2.8228    1.0000 </r>
       <r>    2.8973    1.0000 </r>
       <r>    2.9808    1.0000 </r>
       <r>    3.0122    1.0000 </r>
       <r>    3.0680    1.0000 </r>
       <r>    3.2389    1.0000 </r>
       <r>    3.4624    1.0000 </r>
       <r>    3.6135    1.0000 </r>
       <r>    3.8261    1.0000 </r>
       <r>    4.0787    1.0000 </r>
       <r>    4.3240    1.0000 </r>
       <r>    4.4134    1.0000 </r>
       <r>    4.5316    1.0000 </r>
       <r>    5.2551    1.0000 </r>
       <r>    5.4536    1.0000 </r>
       <r>    5.7999    1.0000 </r>
       <r>    6.0639    1.0000 </r>
       <r>    6.3426    1.0000 </r>
       <r>    8.0471    0.0000 </r>
       <r>    8.4388    0.0000 </r>
       <r>    8.8080    0.0000 </r>
       <r>    9.0584    0.0000 </r>
       <r>   10.0681    0.0000 </r>
       <r>   10.1947    0.0000 </r>
       <r>   11.1538    0.0000 </r>
       <r>   11.6315    0.0000 </r>
       <r>   11.8241    0.0000 </r>
       <r>   12.1485    0.0000 </r>
       <r>   12.5106    0.0000 </r>
       <r>   14.0160    0.0000 </r>
      </set>
      <set comment="kpoint 18">
       <r>   -6.2055    1.0000 </r>
       <r>   -6.0882    1.0000 </r>
       <r>   -6.0204    1.0000 </r>
       <r>   -5.9523    1.0000 </r>
       <r>    0.4629    1.0000 </r>
       <r>    0.5364    1.0000 </r>
       <r>    0.6721    1.0000 </r>
       <r>    0.7331    1.0000 </r>
       <r>    0.9991    1.0000 </r>
       <r>    1.0882    1.0000 </r>
       <r>    1.1252    1.0000 </r>
       <r>    1.3166    1.0000 </r>
       <r>    1.3893    1.0000 </r>
       <r>    1.4265    1.0000 </r>
       <r>    1.5411    1.0000 </r>
       <r>    1.5612    1.0000 </r>
       <r>    1.7138    1.0000 </r>
       <r>    1.8283    1.0000 </r>
       <r>    1.9182    1.0000 </r>
       <r>    1.9712    1.0000 </r>
       <r>    2.0058    1.0000 </r>
       <r>    2.0757    1.0000 </r>
       <r>    2.0864    1.0000 </r>
       <r>    2.1880    1.0000 </r>
       <r>    2.2136    1.0000 </r>
       <r>    2.2337    1.0000 </r>
       <r>    2.2846    1.0000 </r>
       <r>    2.3465    1.0000 </r>
       <r>    2.3848    1.0000 </r>
       <r>    2.4123    1.0000 </r>
       <r>    2.4790    1.0000 </r>
       <r>    2.5539    1.0000 </r>
       <r>    2.5864    1.0000 </r>
       <r>    2.6379    1.0000 </r>
       <r>    2.6694    1.0000 </r>
       <r>    2.7069    1.0000 </r>
       <r>    2.7650    1.0000 </r>
       <r>    2.7901    1.0000 </r>
       <r>    2.8249    1.0000 </r>
       <r>    2.9000    1.0000 </r>
       <r>    2.9749    1.0000 </r>
       <r>    2.9979    1.0000 </r>
       <r>    3.0754    1.0000 </r>
       <r>    3.2189    1.0000 </r>
       <r>    3.4376    1.0000 </r>
       <r>    3.6421    1.0000 </r>
       <r>    3.8982    1.0000 </r>
       <r>    4.0504    1.0000 </r>
       <r>    4.3383    1.0000 </r>
       <r>    4.4324    1.0000 </r>
       <r>    4.4819    1.0000 </r>
       <r>    5.2591    1.0000 </r>
       <r>    5.4097    1.0000 </r>
       <r>    5.7863    1.0000 </r>
       <r>    6.1097    1.0000 </r>
       <r>    6.3256    1.0000 </r>
       <r>    7.9544    0.0000 </r>
       <r>    8.3292    0.0000 </r>
       <r>    8.7481    0.0000 </r>
       <r>    9.1462    0.0000 </r>
       <r>   10.0232    0.0000 </r>
       <r>   10.1594    0.0000 </r>
       <r>   11.1964    0.0000 </r>
       <r>   11.6768    0.0000 </r>
       <r>   11.7818    0.0000 </r>
       <r>   12.1654    0.0000 </r>
       <r>   12.5849    0.0000 </r>
       <r>   13.9788    0.0000 </r>
      </set>
      <set comment="kpoint 19">
       <r>   -6.1917    1.0000 </r>
       <r>   -6.0781    1.0000 </r>
       <r>   -6.0308    1.0000 </r>
       <r>   -5.9524    1.0000 </r>
       <r>    0.4545    1.0000 </r>
       <r>    0.5382    1.0000 </r>
       <r>    0.6621    1.0000 </r>
       <r>    0.7260    1.0000 </r>
       <r>    1.0063    1.0000 </r>
       <r>    1.0950    1.0000 </r>
       <r>    1.1168    1.0000 </r>
       <r>    1.3306    1.0000 </r>
       <r>    1.4064    1.0000 </r>
       <r>    1.4386    1.0000 </r>
       <r>    1.5320    1.0000 </r>
       <r>    1.5591    1.0000 </r>
       <r>    1.7060    1.0000 </r>
       <r>    1.8496    1.0000 </r>
       <r>    1.9330    1.0000 </r>
       <r>    1.9669    1.0000 </r>
       <r>    1.9997    1.0000 </r>
       <r>    2.0878    1.0000 </r>
       <r>    2.0988    1.0000 </r>
       <r>    2.1826    1.0000 </r>
       <r>    2.2069    1.0000 </r>
       <r>    2.2321    1.0000 </r>
       <r>    2.2973    1.0000 </r>
       <r>    2.3372    1.0000 </r>
       <r>    2.3759    1.0000 </r>
       <r>    2.4136    1.0000 </r>
       <r>    2.4842    1.0000 </r>
       <r>    2.5427    1.0000 </r>
       <r>    2.5769    1.0000 </r>
       <r>    2.6360    1.0000 </r>
       <r>    2.6691    1.0000 </r>
       <r>    2.7052    1.0000 </r>
       <r>    2.7488    1.0000 </r>
       <r>    2.7787    1.0000 </r>
       <r>    2.8273    1.0000 </r>
       <r>    2.9008    1.0000 </r>
       <r>    2.9701    1.0000 </r>
       <r>    2.9964    1.0000 </r>
       <r>    3.0810    1.0000 </r>
       <r>    3.2046    1.0000 </r>
       <r>    3.4209    1.0000 </r>
       <r>    3.6598    1.0000 </r>
       <r>    3.9657    1.0000 </r>
       <r>    4.0320    1.0000 </r>
       <r>    4.3411    1.0000 </r>
       <r>    4.3974    1.0000 </r>
       <r>    4.4818    1.0000 </r>
       <r>    5.2721    1.0000 </r>
       <r>    5.3772    1.0000 </r>
       <r>    5.7774    1.0000 </r>
       <r>    6.1365    1.0000 </r>
       <r>    6.3164    1.0000 </r>
       <r>    7.9004    0.0000 </r>
       <r>    8.2542    0.0000 </r>
       <r>    8.7123    0.0000 </r>
       <r>    9.2089    0.0000 </r>
       <r>    9.9903    0.0000 </r>
       <r>   10.1363    0.0000 </r>
       <r>   11.2230    0.0000 </r>
       <r>   11.7034    0.0000 </r>
       <r>   11.7552    0.0000 </r>
       <r>   12.1806    0.0000 </r>
       <r>   12.6323    0.0000 </r>
       <r>   13.9507    0.0000 </r>
      </set>
      <set comment="kpoint 20">
       <r>   -6.1871    1.0000 </r>
       <r>   -6.0728    1.0000 </r>
       <r>   -6.0362    1.0000 </r>
       <r>   -5.9525    1.0000 </r>
       <r>    0.4516    1.0000 </r>
       <r>    0.5389    1.0000 </r>
       <r>    0.6587    1.0000 </r>
       <r>    0.7235    1.0000 </r>
       <r>    1.0087    1.0000 </r>
       <r>    1.0951    1.0000 </r>
       <r>    1.1161    1.0000 </r>
       <r>    1.3358    1.0000 </r>
       <r>    1.4133    1.0000 </r>
       <r>    1.4431    1.0000 </r>
       <r>    1.5273    1.0000 </r>
       <r>    1.5585    1.0000 </r>
       <r>    1.7029    1.0000 </r>
       <r>    1.8583    1.0000 </r>
       <r>    1.9406    1.0000 </r>
       <r>    1.9624    1.0000 </r>
       <r>    1.9963    1.0000 </r>
       <r>    2.0910    1.0000 </r>
       <r>    2.1066    1.0000 </r>
       <r>    2.1783    1.0000 </r>
       <r>    2.2043    1.0000 </r>
       <r>    2.2292    1.0000 </r>
       <r>    2.3040    1.0000 </r>
       <r>    2.3342    1.0000 </r>
       <r>    2.3729    1.0000 </r>
       <r>    2.4145    1.0000 </r>
       <r>    2.4885    1.0000 </r>
       <r>    2.5337    1.0000 </r>
       <r>    2.5768    1.0000 </r>
       <r>    2.6348    1.0000 </r>
       <r>    2.6693    1.0000 </r>
       <r>    2.7043    1.0000 </r>
       <r>    2.7426    1.0000 </r>
       <r>    2.7747    1.0000 </r>
       <r>    2.8283    1.0000 </r>
       <r>    2.9011    1.0000 </r>
       <r>    2.9671    1.0000 </r>
       <r>    2.9985    1.0000 </r>
       <r>    3.0829    1.0000 </r>
       <r>    3.1994    1.0000 </r>
       <r>    3.4150    1.0000 </r>
       <r>    3.6657    1.0000 </r>
       <r>    4.0007    1.0000 </r>
       <r>    4.0210    1.0000 </r>
       <r>    4.3344    1.0000 </r>
       <r>    4.3807    1.0000 </r>
       <r>    4.4869    1.0000 </r>
       <r>    5.2814    1.0000 </r>
       <r>    5.3624    1.0000 </r>
       <r>    5.7744    1.0000 </r>
       <r>    6.1450    1.0000 </r>
       <r>    6.3138    1.0000 </r>
       <r>    7.8829    0.0000 </r>
       <r>    8.2274    0.0000 </r>
       <r>    8.7005    0.0000 </r>
       <r>    9.2316    0.0000 </r>
       <r>    9.9777    0.0000 </r>
       <r>   10.1284    0.0000 </r>
       <r>   11.2319    0.0000 </r>
       <r>   11.7126    0.0000 </r>
       <r>   11.7456    0.0000 </r>
       <r>   12.1867    0.0000 </r>
       <r>   12.6486    0.0000 </r>
       <r>   13.9429    0.0000 </r>
      </set>
      <set comment="kpoint 21">
       <r>   -6.4424    1.0000 </r>
       <r>   -6.3267    1.0000 </r>
       <r>   -6.0947    1.0000 </r>
       <r>   -6.0150    1.0000 </r>
       <r>    0.4077    1.0000 </r>
       <r>    0.4240    1.0000 </r>
       <r>    0.7224    1.0000 </r>
       <r>    0.7456    1.0000 </r>
       <r>    0.9311    1.0000 </r>
       <r>    0.9819    1.0000 </r>
       <r>    1.0167    1.0000 </r>
       <r>    1.0959    1.0000 </r>
       <r>    1.2056    1.0000 </r>
       <r>    1.2817    1.0000 </r>
       <r>    1.3900    1.0000 </r>
       <r>    1.4078    1.0000 </r>
       <r>    1.6058    1.0000 </r>
       <r>    1.6484    1.0000 </r>
       <r>    1.6620    1.0000 </r>
       <r>    1.7699    1.0000 </r>
       <r>    1.9139    1.0000 </r>
       <r>    1.9892    1.0000 </r>
       <r>    2.0914    1.0000 </r>
       <r>    2.1224    1.0000 </r>
       <r>    2.2598    1.0000 </r>
       <r>    2.3394    1.0000 </r>
       <r>    2.4058    1.0000 </r>
       <r>    2.4364    1.0000 </r>
       <r>    2.4501    1.0000 </r>
       <r>    2.5417    1.0000 </r>
       <r>    2.5597    1.0000 </r>
       <r>    2.6056    1.0000 </r>
       <r>    2.6352    1.0000 </r>
       <r>    2.7119    1.0000 </r>
       <r>    2.7737    1.0000 </r>
       <r>    2.8184    1.0000 </r>
       <r>    2.8850    1.0000 </r>
       <r>    2.9269    1.0000 </r>
       <r>    2.9552    1.0000 </r>
       <r>    3.0221    1.0000 </r>
       <r>    3.0687    1.0000 </r>
       <r>    3.1880    1.0000 </r>
       <r>    3.2137    1.0000 </r>
       <r>    3.2237    1.0000 </r>
       <r>    3.2830    1.0000 </r>
       <r>    3.3250    1.0000 </r>
       <r>    4.0737    1.0000 </r>
       <r>    4.1953    1.0000 </r>
       <r>    5.3170    1.0000 </r>
       <r>    5.3816    1.0000 </r>
       <r>    5.6468    1.0000 </r>
       <r>    5.7344    1.0000 </r>
       <r>    5.8559    1.0000 </r>
       <r>    6.1454    1.0000 </r>
       <r>    6.5040    1.0000 </r>
       <r>    6.6015    1.0000 </r>
       <r>    7.7794    0.0000 </r>
       <r>    7.9483    0.0000 </r>
       <r>    8.2296    0.0000 </r>
       <r>    8.2529    0.0000 </r>
       <r>   11.1806    0.0000 </r>
       <r>   11.2618    0.0000 </r>
       <r>   11.3315    0.0000 </r>
       <r>   11.5743    0.0000 </r>
       <r>   11.9500    0.0000 </r>
       <r>   12.1780    0.0000 </r>
       <r>   12.5961    0.0000 </r>
       <r>   12.7901    0.0000 </r>
      </set>
      <set comment="kpoint 22">
       <r>   -6.4472    1.0000 </r>
       <r>   -6.3219    1.0000 </r>
       <r>   -6.0953    1.0000 </r>
       <r>   -6.0142    1.0000 </r>
       <r>    0.4086    1.0000 </r>
       <r>    0.4249    1.0000 </r>
       <r>    0.7024    1.0000 </r>
       <r>    0.7667    1.0000 </r>
       <r>    0.9265    1.0000 </r>
       <r>    0.9795    1.0000 </r>
       <r>    1.0186    1.0000 </r>
       <r>    1.0969    1.0000 </r>
       <r>    1.2079    1.0000 </r>
       <r>    1.2838    1.0000 </r>
       <r>    1.3889    1.0000 </r>
       <r>    1.4085    1.0000 </r>
       <r>    1.6041    1.0000 </r>
       <r>    1.6459    1.0000 </r>
       <r>    1.6664    1.0000 </r>
       <r>    1.7721    1.0000 </r>
       <r>    1.9150    1.0000 </r>
       <r>    1.9891    1.0000 </r>
       <r>    2.0892    1.0000 </r>
       <r>    2.1239    1.0000 </r>
       <r>    2.2579    1.0000 </r>
       <r>    2.3380    1.0000 </r>
       <r>    2.4068    1.0000 </r>
       <r>    2.4302    1.0000 </r>
       <r>    2.4558    1.0000 </r>
       <r>    2.5400    1.0000 </r>
       <r>    2.5609    1.0000 </r>
       <r>    2.5988    1.0000 </r>
       <r>    2.6413    1.0000 </r>
       <r>    2.7129    1.0000 </r>
       <r>    2.7734    1.0000 </r>
       <r>    2.8163    1.0000 </r>
       <r>    2.8746    1.0000 </r>
       <r>    2.9337    1.0000 </r>
       <r>    2.9580    1.0000 </r>
       <r>    3.0220    1.0000 </r>
       <r>    3.0706    1.0000 </r>
       <r>    3.1855    1.0000 </r>
       <r>    3.2064    1.0000 </r>
       <r>    3.2327    1.0000 </r>
       <r>    3.2833    1.0000 </r>
       <r>    3.3286    1.0000 </r>
       <r>    4.0459    1.0000 </r>
       <r>    4.2234    1.0000 </r>
       <r>    5.2897    1.0000 </r>
       <r>    5.3957    1.0000 </r>
       <r>    5.6445    1.0000 </r>
       <r>    5.7277    1.0000 </r>
       <r>    5.8629    1.0000 </r>
       <r>    6.1479    1.0000 </r>
       <r>    6.5058    1.0000 </r>
       <r>    6.6017    1.0000 </r>
       <r>    7.7668    0.0000 </r>
       <r>    7.9607    0.0000 </r>
       <r>    8.1953    0.0000 </r>
       <r>    8.2918    0.0000 </r>
       <r>   11.1806    0.0000 </r>
       <r>   11.2586    0.0000 </r>
       <r>   11.3403    0.0000 </r>
       <r>   11.5801    0.0000 </r>
       <r>   11.9500    0.0000 </r>
       <r>   12.1770    0.0000 </r>
       <r>   12.5988    0.0000 </r>
       <r>   12.7836    0.0000 </r>
      </set>
      <set comment="kpoint 23">
       <r>   -6.4597    1.0000 </r>
       <r>   -6.3095    1.0000 </r>
       <r>   -6.0970    1.0000 </r>
       <r>   -6.0121    1.0000 </r>
       <r>    0.4114    1.0000 </r>
       <r>    0.4277    1.0000 </r>
       <r>    0.6755    1.0000 </r>
       <r>    0.7968    1.0000 </r>
       <r>    0.9149    1.0000 </r>
       <r>    0.9713    1.0000 </r>
       <r>    1.0244    1.0000 </r>
       <r>    1.0992    1.0000 </r>
       <r>    1.2147    1.0000 </r>
       <r>    1.2898    1.0000 </r>
       <r>    1.3862    1.0000 </r>
       <r>    1.4103    1.0000 </r>
       <r>    1.5994    1.0000 </r>
       <r>    1.6416    1.0000 </r>
       <r>    1.6764    1.0000 </r>
       <r>    1.7784    1.0000 </r>
       <r>    1.9181    1.0000 </r>
       <r>    1.9887    1.0000 </r>
       <r>    2.0839    1.0000 </r>
       <r>    2.1264    1.0000 </r>
       <r>    2.2532    1.0000 </r>
       <r>    2.3341    1.0000 </r>
       <r>    2.4094    1.0000 </r>
       <r>    2.4204    1.0000 </r>
       <r>    2.4639    1.0000 </r>
       <r>    2.5353    1.0000 </r>
       <r>    2.5611    1.0000 </r>
       <r>    2.5902    1.0000 </r>
       <r>    2.6513    1.0000 </r>
       <r>    2.7147    1.0000 </r>
       <r>    2.7733    1.0000 </r>
       <r>    2.8104    1.0000 </r>
       <r>    2.8557    1.0000 </r>
       <r>    2.9421    1.0000 </r>
       <r>    2.9665    1.0000 </r>
       <r>    3.0221    1.0000 </r>
       <r>    3.0760    1.0000 </r>
       <r>    3.1764    1.0000 </r>
       <r>    3.2005    1.0000 </r>
       <r>    3.2451    1.0000 </r>
       <r>    3.2852    1.0000 </r>
       <r>    3.3384    1.0000 </r>
       <r>    3.9926    1.0000 </r>
       <r>    4.2776    1.0000 </r>
       <r>    5.2375    1.0000 </r>
       <r>    5.4081    1.0000 </r>
       <r>    5.6346    1.0000 </r>
       <r>    5.7161    1.0000 </r>
       <r>    5.8793    1.0000 </r>
       <r>    6.1551    1.0000 </r>
       <r>    6.5110    1.0000 </r>
       <r>    6.6022    1.0000 </r>
       <r>    7.7375    0.0000 </r>
       <r>    7.9879    0.0000 </r>
       <r>    8.1572    0.0000 </r>
       <r>    8.3458    0.0000 </r>
       <r>   11.1793    0.0000 </r>
       <r>   11.2541    0.0000 </r>
       <r>   11.3609    0.0000 </r>
       <r>   11.5985    0.0000 </r>
       <r>   11.9503    0.0000 </r>
       <r>   12.1743    0.0000 </r>
       <r>   12.6067    0.0000 </r>
       <r>   12.7806    0.0000 </r>
      </set>
      <set comment="kpoint 24">
       <r>   -6.4765    1.0000 </r>
       <r>   -6.2930    1.0000 </r>
       <r>   -6.0994    1.0000 </r>
       <r>   -6.0089    1.0000 </r>
       <r>    0.4161    1.0000 </r>
       <r>    0.4322    1.0000 </r>
       <r>    0.6500    1.0000 </r>
       <r>    0.8272    1.0000 </r>
       <r>    0.8995    1.0000 </r>
       <r>    0.9581    1.0000 </r>
       <r>    1.0330    1.0000 </r>
       <r>    1.1018    1.0000 </r>
       <r>    1.2251    1.0000 </r>
       <r>    1.2980    1.0000 </r>
       <r>    1.3837    1.0000 </r>
       <r>    1.4125    1.0000 </r>
       <r>    1.5924    1.0000 </r>
       <r>    1.6376    1.0000 </r>
       <r>    1.6902    1.0000 </r>
       <r>    1.7883    1.0000 </r>
       <r>    1.9231    1.0000 </r>
       <r>    1.9878    1.0000 </r>
       <r>    2.0775    1.0000 </r>
       <r>    2.1266    1.0000 </r>
       <r>    2.2482    1.0000 </r>
       <r>    2.3284    1.0000 </r>
       <r>    2.4074    1.0000 </r>
       <r>    2.4160    1.0000 </r>
       <r>    2.4696    1.0000 </r>
       <r>    2.5269    1.0000 </r>
       <r>    2.5544    1.0000 </r>
       <r>    2.5922    1.0000 </r>
       <r>    2.6592    1.0000 </r>
       <r>    2.7142    1.0000 </r>
       <r>    2.7754    1.0000 </r>
       <r>    2.8010    1.0000 </r>
       <r>    2.8393    1.0000 </r>
       <r>    2.9460    1.0000 </r>
       <r>    2.9778    1.0000 </r>
       <r>    3.0229    1.0000 </r>
       <r>    3.0837    1.0000 </r>
       <r>    3.1627    1.0000 </r>
       <r>    3.1983    1.0000 </r>
       <r>    3.2568    1.0000 </r>
       <r>    3.2902    1.0000 </r>
       <r>    3.3529    1.0000 </r>
       <r>    3.9343    1.0000 </r>
       <r>    4.3370    1.0000 </r>
       <r>    5.1776    1.0000 </r>
       <r>    5.4021    1.0000 </r>
       <r>    5.6102    1.0000 </r>
       <r>    5.7141    1.0000 </r>
       <r>    5.8991    1.0000 </r>
       <r>    6.1663    1.0000 </r>
       <r>    6.5193    1.0000 </r>
       <r>    6.6033    1.0000 </r>
       <r>    7.7009    0.0000 </r>
       <r>    8.0155    0.0000 </r>
       <r>    8.1278    0.0000 </r>
       <r>    8.4072    0.0000 </r>
       <r>   11.1730    0.0000 </r>
       <r>   11.2546    0.0000 </r>
       <r>   11.3855    0.0000 </r>
       <r>   11.6311    0.0000 </r>
       <r>   11.9518    0.0000 </r>
       <r>   12.1701    0.0000 </r>
       <r>   12.6181    0.0000 </r>
       <r>   12.7772    0.0000 </r>
      </set>
      <set comment="kpoint 25">
       <r>   -6.4952    1.0000 </r>
       <r>   -6.2747    1.0000 </r>
       <r>   -6.1022    1.0000 </r>
       <r>   -6.0048    1.0000 </r>
       <r>    0.4224    1.0000 </r>
       <r>    0.4382    1.0000 </r>
       <r>    0.6266    1.0000 </r>
       <r>    0.8538    1.0000 </r>
       <r>    0.8855    1.0000 </r>
       <r>    0.9419    1.0000 </r>
       <r>    1.0422    1.0000 </r>
       <r>    1.1044    1.0000 </r>
       <r>    1.2374    1.0000 </r>
       <r>    1.3062    1.0000 </r>
       <r>    1.3829    1.0000 </r>
       <r>    1.4153    1.0000 </r>
       <r>    1.5840    1.0000 </r>
       <r>    1.6346    1.0000 </r>
       <r>    1.7073    1.0000 </r>
       <r>    1.8009    1.0000 </r>
       <r>    1.9293    1.0000 </r>
       <r>    1.9857    1.0000 </r>
       <r>    2.0712    1.0000 </r>
       <r>    2.1219    1.0000 </r>
       <r>    2.2454    1.0000 </r>
       <r>    2.3222    1.0000 </r>
       <r>    2.3983    1.0000 </r>
       <r>    2.4191    1.0000 </r>
       <r>    2.4713    1.0000 </r>
       <r>    2.5137    1.0000 </r>
       <r>    2.5465    1.0000 </r>
       <r>    2.6012    1.0000 </r>
       <r>    2.6640    1.0000 </r>
       <r>    2.7086    1.0000 </r>
       <r>    2.7778    1.0000 </r>
       <r>    2.7928    1.0000 </r>
       <r>    2.8297    1.0000 </r>
       <r>    2.9468    1.0000 </r>
       <r>    2.9881    1.0000 </r>
       <r>    3.0250    1.0000 </r>
       <r>    3.0925    1.0000 </r>
       <r>    3.1476    1.0000 </r>
       <r>    3.1971    1.0000 </r>
       <r>    3.2676    1.0000 </r>
       <r>    3.2987    1.0000 </r>
       <r>    3.3709    1.0000 </r>
       <r>    3.8754    1.0000 </r>
       <r>    4.3965    1.0000 </r>
       <r>    5.1148    1.0000 </r>
       <r>    5.3768    1.0000 </r>
       <r>    5.5724    1.0000 </r>
       <r>    5.7222    1.0000 </r>
       <r>    5.9196    1.0000 </r>
       <r>    6.1805    1.0000 </r>
       <r>    6.5299    1.0000 </r>
       <r>    6.6052    1.0000 </r>
       <r>    7.6592    0.0000 </r>
       <r>    8.0362    0.0000 </r>
       <r>    8.1126    0.0000 </r>
       <r>    8.4770    0.0000 </r>
       <r>   11.1580    0.0000 </r>
       <r>   11.2627    0.0000 </r>
       <r>   11.4099    0.0000 </r>
       <r>   11.6766    0.0000 </r>
       <r>   11.9578    0.0000 </r>
       <r>   12.1648    0.0000 </r>
       <r>   12.6302    0.0000 </r>
       <r>   12.7775    0.0000 </r>
      </set>
      <set comment="kpoint 26">
       <r>   -6.5147    1.0000 </r>
       <r>   -6.2563    1.0000 </r>
       <r>   -6.1049    1.0000 </r>
       <r>   -6.0002    1.0000 </r>
       <r>    0.4302    1.0000 </r>
       <r>    0.4456    1.0000 </r>
       <r>    0.6058    1.0000 </r>
       <r>    0.8539    1.0000 </r>
       <r>    0.8953    1.0000 </r>
       <r>    0.9253    1.0000 </r>
       <r>    1.0509    1.0000 </r>
       <r>    1.1071    1.0000 </r>
       <r>    1.2498    1.0000 </r>
       <r>    1.3114    1.0000 </r>
       <r>    1.3859    1.0000 </r>
       <r>    1.4196    1.0000 </r>
       <r>    1.5748    1.0000 </r>
       <r>    1.6331    1.0000 </r>
       <r>    1.7273    1.0000 </r>
       <r>    1.8155    1.0000 </r>
       <r>    1.9365    1.0000 </r>
       <r>    1.9821    1.0000 </r>
       <r>    2.0655    1.0000 </r>
       <r>    2.1114    1.0000 </r>
       <r>    2.2451    1.0000 </r>
       <r>    2.3167    1.0000 </r>
       <r>    2.3894    1.0000 </r>
       <r>    2.4214    1.0000 </r>
       <r>    2.4685    1.0000 </r>
       <r>    2.4976    1.0000 </r>
       <r>    2.5406    1.0000 </r>
       <r>    2.6113    1.0000 </r>
       <r>    2.6656    1.0000 </r>
       <r>    2.6994    1.0000 </r>
       <r>    2.7703    1.0000 </r>
       <r>    2.7988    1.0000 </r>
       <r>    2.8265    1.0000 </r>
       <r>    2.9454    1.0000 </r>
       <r>    2.9961    1.0000 </r>
       <r>    3.0282    1.0000 </r>
       <r>    3.1009    1.0000 </r>
       <r>    3.1334    1.0000 </r>
       <r>    3.1958    1.0000 </r>
       <r>    3.2783    1.0000 </r>
       <r>    3.3097    1.0000 </r>
       <r>    3.3916    1.0000 </r>
       <r>    3.8174    1.0000 </r>
       <r>    4.4535    1.0000 </r>
       <r>    5.0520    1.0000 </r>
       <r>    5.3363    1.0000 </r>
       <r>    5.5269    1.0000 </r>
       <r>    5.7333    1.0000 </r>
       <r>    5.9400    1.0000 </r>
       <r>    6.1965    1.0000 </r>
       <r>    6.5421    1.0000 </r>
       <r>    6.6085    1.0000 </r>
       <r>    7.6103    0.0000 </r>
       <r>    8.0502    0.0000 </r>
       <r>    8.1139    0.0000 </r>
       <r>    8.5545    0.0000 </r>
       <r>   11.1327    0.0000 </r>
       <r>   11.2762    0.0000 </r>
       <r>   11.4339    0.0000 </r>
       <r>   11.7257    0.0000 </r>
       <r>   11.9766    0.0000 </r>
       <r>   12.1589    0.0000 </r>
       <r>   12.6387    0.0000 </r>
       <r>   12.7862    0.0000 </r>
      </set>
      <set comment="kpoint 27">
       <r>   -6.5341    1.0000 </r>
       <r>   -6.2387    1.0000 </r>
       <r>   -6.1068    1.0000 </r>
       <r>   -5.9952    1.0000 </r>
       <r>    0.4392    1.0000 </r>
       <r>    0.4543    1.0000 </r>
       <r>    0.5881    1.0000 </r>
       <r>    0.8366    1.0000 </r>
       <r>    0.9026    1.0000 </r>
       <r>    0.9270    1.0000 </r>
       <r>    1.0586    1.0000 </r>
       <r>    1.1103    1.0000 </r>
       <r>    1.2604    1.0000 </r>
       <r>    1.3120    1.0000 </r>
       <r>    1.3936    1.0000 </r>
       <r>    1.4263    1.0000 </r>
       <r>    1.5657    1.0000 </r>
       <r>    1.6333    1.0000 </r>
       <r>    1.7493    1.0000 </r>
       <r>    1.8312    1.0000 </r>
       <r>    1.9437    1.0000 </r>
       <r>    1.9775    1.0000 </r>
       <r>    2.0613    1.0000 </r>
       <r>    2.0964    1.0000 </r>
       <r>    2.2455    1.0000 </r>
       <r>    2.3128    1.0000 </r>
       <r>    2.3818    1.0000 </r>
       <r>    2.4208    1.0000 </r>
       <r>    2.4619    1.0000 </r>
       <r>    2.4824    1.0000 </r>
       <r>    2.5342    1.0000 </r>
       <r>    2.6187    1.0000 </r>
       <r>    2.6653    1.0000 </r>
       <r>    2.6908    1.0000 </r>
       <r>    2.7626    1.0000 </r>
       <r>    2.8084    1.0000 </r>
       <r>    2.8290    1.0000 </r>
       <r>    2.9427    1.0000 </r>
       <r>    3.0018    1.0000 </r>
       <r>    3.0321    1.0000 </r>
       <r>    3.1054    1.0000 </r>
       <r>    3.1240    1.0000 </r>
       <r>    3.1942    1.0000 </r>
       <r>    3.2896    1.0000 </r>
       <r>    3.3218    1.0000 </r>
       <r>    3.4139    1.0000 </r>
       <r>    3.7613    1.0000 </r>
       <r>    4.5053    1.0000 </r>
       <r>    4.9913    1.0000 </r>
       <r>    5.2855    1.0000 </r>
       <r>    5.4770    1.0000 </r>
       <r>    5.7426    1.0000 </r>
       <r>    5.9601    1.0000 </r>
       <r>    6.2133    1.0000 </r>
       <r>    6.5550    1.0000 </r>
       <r>    6.6139    1.0000 </r>
       <r>    7.5522    0.0000 </r>
       <r>    8.0619    0.0000 </r>
       <r>    8.1308    0.0000 </r>
       <r>    8.6383    0.0000 </r>
       <r>   11.0965    0.0000 </r>
       <r>   11.2920    0.0000 </r>
       <r>   11.4589    0.0000 </r>
       <r>   11.7609    0.0000 </r>
       <r>   12.0225    0.0000 </r>
       <r>   12.1533    0.0000 </r>
       <r>   12.6368    0.0000 </r>
       <r>   12.8078    0.0000 </r>
      </set>
      <set comment="kpoint 28">
       <r>   -6.5530    1.0000 </r>
       <r>   -6.2229    1.0000 </r>
       <r>   -6.1075    1.0000 </r>
       <r>   -5.9902    1.0000 </r>
       <r>    0.4485    1.0000 </r>
       <r>    0.4641    1.0000 </r>
       <r>    0.5739    1.0000 </r>
       <r>    0.8177    1.0000 </r>
       <r>    0.8866    1.0000 </r>
       <r>    0.9527    1.0000 </r>
       <r>    1.0650    1.0000 </r>
       <r>    1.1140    1.0000 </r>
       <r>    1.2677    1.0000 </r>
       <r>    1.3083    1.0000 </r>
       <r>    1.4051    1.0000 </r>
       <r>    1.4361    1.0000 </r>
       <r>    1.5575    1.0000 </r>
       <r>    1.6352    1.0000 </r>
       <r>    1.7719    1.0000 </r>
       <r>    1.8468    1.0000 </r>
       <r>    1.9488    1.0000 </r>
       <r>    1.9747    1.0000 </r>
       <r>    2.0587    1.0000 </r>
       <r>    2.0789    1.0000 </r>
       <r>    2.2433    1.0000 </r>
       <r>    2.3113    1.0000 </r>
       <r>    2.3757    1.0000 </r>
       <r>    2.4160    1.0000 </r>
       <r>    2.4523    1.0000 </r>
       <r>    2.4718    1.0000 </r>
       <r>    2.5251    1.0000 </r>
       <r>    2.6206    1.0000 </r>
       <r>    2.6654    1.0000 </r>
       <r>    2.6857    1.0000 </r>
       <r>    2.7589    1.0000 </r>
       <r>    2.8147    1.0000 </r>
       <r>    2.8376    1.0000 </r>
       <r>    2.9395    1.0000 </r>
       <r>    3.0056    1.0000 </r>
       <r>    3.0361    1.0000 </r>
       <r>    3.0997    1.0000 </r>
       <r>    3.1263    1.0000 </r>
       <r>    3.1922    1.0000 </r>
       <r>    3.3018    1.0000 </r>
       <r>    3.3346    1.0000 </r>
       <r>    3.4368    1.0000 </r>
       <r>    3.7078    1.0000 </r>
       <r>    4.5479    1.0000 </r>
       <r>    4.9349    1.0000 </r>
       <r>    5.2301    1.0000 </r>
       <r>    5.4244    1.0000 </r>
       <r>    5.7485    1.0000 </r>
       <r>    5.9800    1.0000 </r>
       <r>    6.2299    1.0000 </r>
       <r>    6.5682    1.0000 </r>
       <r>    6.6217    1.0000 </r>
       <r>    7.4851    0.0000 </r>
       <r>    8.0687    0.0000 </r>
       <r>    8.1675    0.0000 </r>
       <r>    8.7264    0.0000 </r>
       <r>   11.0489    0.0000 </r>
       <r>   11.3074    0.0000 </r>
       <r>   11.4851    0.0000 </r>
       <r>   11.7722    0.0000 </r>
       <r>   12.0969    0.0000 </r>
       <r>   12.1545    0.0000 </r>
       <r>   12.6266    0.0000 </r>
       <r>   12.8435    0.0000 </r>
      </set>
      <set comment="kpoint 29">
       <r>   -6.5711    1.0000 </r>
       <r>   -6.2098    1.0000 </r>
       <r>   -6.1062    1.0000 </r>
       <r>   -5.9851    1.0000 </r>
       <r>    0.4573    1.0000 </r>
       <r>    0.4749    1.0000 </r>
       <r>    0.5637    1.0000 </r>
       <r>    0.7993    1.0000 </r>
       <r>    0.8700    1.0000 </r>
       <r>    0.9783    1.0000 </r>
       <r>    1.0702    1.0000 </r>
       <r>    1.1176    1.0000 </r>
       <r>    1.2714    1.0000 </r>
       <r>    1.3021    1.0000 </r>
       <r>    1.4190    1.0000 </r>
       <r>    1.4485    1.0000 </r>
       <r>    1.5509    1.0000 </r>
       <r>    1.6388    1.0000 </r>
       <r>    1.7924    1.0000 </r>
       <r>    1.8610    1.0000 </r>
       <r>    1.9481    1.0000 </r>
       <r>    1.9797    1.0000 </r>
       <r>    2.0562    1.0000 </r>
       <r>    2.0632    1.0000 </r>
       <r>    2.2363    1.0000 </r>
       <r>    2.3114    1.0000 </r>
       <r>    2.3709    1.0000 </r>
       <r>    2.4080    1.0000 </r>
       <r>    2.4396    1.0000 </r>
       <r>    2.4679    1.0000 </r>
       <r>    2.5127    1.0000 </r>
       <r>    2.6180    1.0000 </r>
       <r>    2.6655    1.0000 </r>
       <r>    2.6851    1.0000 </r>
       <r>    2.7593    1.0000 </r>
       <r>    2.8187    1.0000 </r>
       <r>    2.8488    1.0000 </r>
       <r>    2.9367    1.0000 </r>
       <r>    3.0080    1.0000 </r>
       <r>    3.0395    1.0000 </r>
       <r>    3.0914    1.0000 </r>
       <r>    3.1340    1.0000 </r>
       <r>    3.1898    1.0000 </r>
       <r>    3.3142    1.0000 </r>
       <r>    3.3485    1.0000 </r>
       <r>    3.4587    1.0000 </r>
       <r>    3.6577    1.0000 </r>
       <r>    4.5754    1.0000 </r>
       <r>    4.8852    1.0000 </r>
       <r>    5.1766    1.0000 </r>
       <r>    5.3705    1.0000 </r>
       <r>    5.7507    1.0000 </r>
       <r>    5.9993    1.0000 </r>
       <r>    6.2458    1.0000 </r>
       <r>    6.5811    1.0000 </r>
       <r>    6.6321    1.0000 </r>
       <r>    7.4104    0.0000 </r>
       <r>    8.0684    0.0000 </r>
       <r>    8.2257    0.0000 </r>
       <r>    8.8168    0.0000 </r>
       <r>   10.9897    0.0000 </r>
       <r>   11.3211    0.0000 </r>
       <r>   11.5105    0.0000 </r>
       <r>   11.7666    0.0000 </r>
       <r>   12.1262    0.0000 </r>
       <r>   12.2275    0.0000 </r>
       <r>   12.6108    0.0000 </r>
       <r>   12.8950    0.0000 </r>
      </set>
      <set comment="kpoint 30">
       <r>   -6.5882    1.0000 </r>
       <r>   -6.1999    1.0000 </r>
       <r>   -6.1025    1.0000 </r>
       <r>   -5.9803    1.0000 </r>
       <r>    0.4646    1.0000 </r>
       <r>    0.4865    1.0000 </r>
       <r>    0.5580    1.0000 </r>
       <r>    0.7821    1.0000 </r>
       <r>    0.8545    1.0000 </r>
       <r>    1.0022    1.0000 </r>
       <r>    1.0745    1.0000 </r>
       <r>    1.1205    1.0000 </r>
       <r>    1.2714    1.0000 </r>
       <r>    1.2950    1.0000 </r>
       <r>    1.4338    1.0000 </r>
       <r>    1.4625    1.0000 </r>
       <r>    1.5469    1.0000 </r>
       <r>    1.6436    1.0000 </r>
       <r>    1.8062    1.0000 </r>
       <r>    1.8733    1.0000 </r>
       <r>    1.9451    1.0000 </r>
       <r>    1.9920    1.0000 </r>
       <r>    2.0418    1.0000 </r>
       <r>    2.0636    1.0000 </r>
       <r>    2.2246    1.0000 </r>
       <r>    2.3107    1.0000 </r>
       <r>    2.3673    1.0000 </r>
       <r>    2.3997    1.0000 </r>
       <r>    2.4257    1.0000 </r>
       <r>    2.4681    1.0000 </r>
       <r>    2.4992    1.0000 </r>
       <r>    2.6138    1.0000 </r>
       <r>    2.6629    1.0000 </r>
       <r>    2.6881    1.0000 </r>
       <r>    2.7632    1.0000 </r>
       <r>    2.8223    1.0000 </r>
       <r>    2.8590    1.0000 </r>
       <r>    2.9351    1.0000 </r>
       <r>    3.0090    1.0000 </r>
       <r>    3.0420    1.0000 </r>
       <r>    3.0851    1.0000 </r>
       <r>    3.1431    1.0000 </r>
       <r>    3.1876    1.0000 </r>
       <r>    3.3256    1.0000 </r>
       <r>    3.3645    1.0000 </r>
       <r>    3.4774    1.0000 </r>
       <r>    3.6129    1.0000 </r>
       <r>    4.5804    1.0000 </r>
       <r>    4.8436    1.0000 </r>
       <r>    5.1334    1.0000 </r>
       <r>    5.3162    1.0000 </r>
       <r>    5.7500    1.0000 </r>
       <r>    6.0183    1.0000 </r>
       <r>    6.2606    1.0000 </r>
       <r>    6.5938    1.0000 </r>
       <r>    6.6445    1.0000 </r>
       <r>    7.3303    0.0000 </r>
       <r>    8.0630    0.0000 </r>
       <r>    8.3021    0.0000 </r>
       <r>    8.9077    0.0000 </r>
       <r>   10.9191    0.0000 </r>
       <r>   11.3320    0.0000 </r>
       <r>   11.5308    0.0000 </r>
       <r>   11.7553    0.0000 </r>
       <r>   12.1212    0.0000 </r>
       <r>   12.3500    0.0000 </r>
       <r>   12.5954    0.0000 </r>
       <r>   12.9549    0.0000 </r>
      </set>
      <set comment="kpoint 31">
       <r>   -6.6040    1.0000 </r>
       <r>   -6.1934    1.0000 </r>
       <r>   -6.0963    1.0000 </r>
       <r>   -5.9756    1.0000 </r>
       <r>    0.4696    1.0000 </r>
       <r>    0.4983    1.0000 </r>
       <r>    0.5572    1.0000 </r>
       <r>    0.7666    1.0000 </r>
       <r>    0.8405    1.0000 </r>
       <r>    1.0239    1.0000 </r>
       <r>    1.0781    1.0000 </r>
       <r>    1.1221    1.0000 </r>
       <r>    1.2681    1.0000 </r>
       <r>    1.2885    1.0000 </r>
       <r>    1.4482    1.0000 </r>
       <r>    1.4772    1.0000 </r>
       <r>    1.5461    1.0000 </r>
       <r>    1.6491    1.0000 </r>
       <r>    1.8083    1.0000 </r>
       <r>    1.8845    1.0000 </r>
       <r>    1.9450    1.0000 </r>
       <r>    2.0072    1.0000 </r>
       <r>    2.0273    1.0000 </r>
       <r>    2.0716    1.0000 </r>
       <r>    2.2096    1.0000 </r>
       <r>    2.3066    1.0000 </r>
       <r>    2.3647    1.0000 </r>
       <r>    2.3923    1.0000 </r>
       <r>    2.4124    1.0000 </r>
       <r>    2.4685    1.0000 </r>
       <r>    2.4890    1.0000 </r>
       <r>    2.6094    1.0000 </r>
       <r>    2.6577    1.0000 </r>
       <r>    2.6918    1.0000 </r>
       <r>    2.7698    1.0000 </r>
       <r>    2.8260    1.0000 </r>
       <r>    2.8668    1.0000 </r>
       <r>    2.9353    1.0000 </r>
       <r>    3.0086    1.0000 </r>
       <r>    3.0440    1.0000 </r>
       <r>    3.0817    1.0000 </r>
       <r>    3.1523    1.0000 </r>
       <r>    3.1864    1.0000 </r>
       <r>    3.3353    1.0000 </r>
       <r>    3.3830    1.0000 </r>
       <r>    3.4891    1.0000 </r>
       <r>    3.5774    1.0000 </r>
       <r>    4.5584    1.0000 </r>
       <r>    4.8087    1.0000 </r>
       <r>    5.1081    1.0000 </r>
       <r>    5.2627    1.0000 </r>
       <r>    5.7471    1.0000 </r>
       <r>    6.0370    1.0000 </r>
       <r>    6.2740    1.0000 </r>
       <r>    6.6061    1.0000 </r>
       <r>    6.6583    1.0000 </r>
       <r>    7.2469    0.0000 </r>
       <r>    8.0545    0.0000 </r>
       <r>    8.3928    0.0000 </r>
       <r>    8.9975    0.0000 </r>
       <r>   10.8378    0.0000 </r>
       <r>   11.3391    0.0000 </r>
       <r>   11.5404    0.0000 </r>
       <r>   11.7476    0.0000 </r>
       <r>   12.1136    0.0000 </r>
       <r>   12.4729    0.0000 </r>
       <r>   12.5860    0.0000 </r>
       <r>   13.0243    0.0000 </r>
      </set>
      <set comment="kpoint 32">
       <r>   -6.6186    1.0000 </r>
       <r>   -6.1899    1.0000 </r>
       <r>   -6.0881    1.0000 </r>
       <r>   -5.9713    1.0000 </r>
       <r>    0.4725    1.0000 </r>
       <r>    0.5097    1.0000 </r>
       <r>    0.5606    1.0000 </r>
       <r>    0.7536    1.0000 </r>
       <r>    0.8282    1.0000 </r>
       <r>    1.0431    1.0000 </r>
       <r>    1.0810    1.0000 </r>
       <r>    1.1223    1.0000 </r>
       <r>    1.2618    1.0000 </r>
       <r>    1.2841    1.0000 </r>
       <r>    1.4600    1.0000 </r>
       <r>    1.4925    1.0000 </r>
       <r>    1.5493    1.0000 </r>
       <r>    1.6546    1.0000 </r>
       <r>    1.7981    1.0000 </r>
       <r>    1.8937    1.0000 </r>
       <r>    1.9484    1.0000 </r>
       <r>    2.0144    1.0000 </r>
       <r>    2.0253    1.0000 </r>
       <r>    2.0863    1.0000 </r>
       <r>    2.1930    1.0000 </r>
       <r>    2.2992    1.0000 </r>
       <r>    2.3616    1.0000 </r>
       <r>    2.3846    1.0000 </r>
       <r>    2.4017    1.0000 </r>
       <r>    2.4646    1.0000 </r>
       <r>    2.4876    1.0000 </r>
       <r>    2.6049    1.0000 </r>
       <r>    2.6505    1.0000 </r>
       <r>    2.6945    1.0000 </r>
       <r>    2.7785    1.0000 </r>
       <r>    2.8299    1.0000 </r>
       <r>    2.8719    1.0000 </r>
       <r>    2.9376    1.0000 </r>
       <r>    3.0069    1.0000 </r>
       <r>    3.0457    1.0000 </r>
       <r>    3.0807    1.0000 </r>
       <r>    3.1589    1.0000 </r>
       <r>    3.1895    1.0000 </r>
       <r>    3.3430    1.0000 </r>
       <r>    3.4018    1.0000 </r>
       <r>    3.4884    1.0000 </r>
       <r>    3.5588    1.0000 </r>
       <r>    4.5118    1.0000 </r>
       <r>    4.7766    1.0000 </r>
       <r>    5.1023    1.0000 </r>
       <r>    5.2124    1.0000 </r>
       <r>    5.7431    1.0000 </r>
       <r>    6.0558    1.0000 </r>
       <r>    6.2864    1.0000 </r>
       <r>    6.6180    1.0000 </r>
       <r>    6.6724    1.0000 </r>
       <r>    7.1621    0.0000 </r>
       <r>    8.0445    0.0000 </r>
       <r>    8.4947    0.0000 </r>
       <r>    9.0848    0.0000 </r>
       <r>   10.7468    0.0000 </r>
       <r>   11.3405    0.0000 </r>
       <r>   11.5369    0.0000 </r>
       <r>   11.7491    0.0000 </r>
       <r>   12.1057    0.0000 </r>
       <r>   12.5193    0.0000 </r>
       <r>   12.6576    0.0000 </r>
       <r>   13.1244    0.0000 </r>
      </set>
      <set comment="kpoint 33">
       <r>   -6.6316    1.0000 </r>
       <r>   -6.1886    1.0000 </r>
       <r>   -6.0790    1.0000 </r>
       <r>   -5.9673    1.0000 </r>
       <r>    0.4739    1.0000 </r>
       <r>    0.5202    1.0000 </r>
       <r>    0.5664    1.0000 </r>
       <r>    0.7438    1.0000 </r>
       <r>    0.8178    1.0000 </r>
       <r>    1.0590    1.0000 </r>
       <r>    1.0832    1.0000 </r>
       <r>    1.1218    1.0000 </r>
       <r>    1.2535    1.0000 </r>
       <r>    1.2816    1.0000 </r>
       <r>    1.4685    1.0000 </r>
       <r>    1.5080    1.0000 </r>
       <r>    1.5566    1.0000 </r>
       <r>    1.6596    1.0000 </r>
       <r>    1.7801    1.0000 </r>
       <r>    1.8980    1.0000 </r>
       <r>    1.9513    1.0000 </r>
       <r>    2.0137    1.0000 </r>
       <r>    2.0377    1.0000 </r>
       <r>    2.1062    1.0000 </r>
       <r>    2.1778    1.0000 </r>
       <r>    2.2902    1.0000 </r>
       <r>    2.3547    1.0000 </r>
       <r>    2.3764    1.0000 </r>
       <r>    2.3953    1.0000 </r>
       <r>    2.4598    1.0000 </r>
       <r>    2.4923    1.0000 </r>
       <r>    2.5997    1.0000 </r>
       <r>    2.6417    1.0000 </r>
       <r>    2.6960    1.0000 </r>
       <r>    2.7880    1.0000 </r>
       <r>    2.8338    1.0000 </r>
       <r>    2.8750    1.0000 </r>
       <r>    2.9417    1.0000 </r>
       <r>    3.0045    1.0000 </r>
       <r>    3.0471    1.0000 </r>
       <r>    3.0811    1.0000 </r>
       <r>    3.1599    1.0000 </r>
       <r>    3.1999    1.0000 </r>
       <r>    3.3488    1.0000 </r>
       <r>    3.4115    1.0000 </r>
       <r>    3.4856    1.0000 </r>
       <r>    3.5564    1.0000 </r>
       <r>    4.4467    1.0000 </r>
       <r>    4.7474    1.0000 </r>
       <r>    5.1031    1.0000 </r>
       <r>    5.1739    1.0000 </r>
       <r>    5.7384    1.0000 </r>
       <r>    6.0750    1.0000 </r>
       <r>    6.2982    1.0000 </r>
       <r>    6.6287    1.0000 </r>
       <r>    6.6862    1.0000 </r>
       <r>    7.0778    0.0000 </r>
       <r>    8.0340    0.0000 </r>
       <r>    8.6049    0.0000 </r>
       <r>    9.1681    0.0000 </r>
       <r>   10.6479    0.0000 </r>
       <r>   11.3335    0.0000 </r>
       <r>   11.5246    0.0000 </r>
       <r>   11.7592    0.0000 </r>
       <r>   12.0980    0.0000 </r>
       <r>   12.5067    0.0000 </r>
       <r>   12.7831    0.0000 </r>
       <r>   13.2009    0.0000 </r>
      </set>
      <set comment="kpoint 34">
       <r>   -6.6432    1.0000 </r>
       <r>   -6.1886    1.0000 </r>
       <r>   -6.0698    1.0000 </r>
       <r>   -5.9638    1.0000 </r>
       <r>    0.4748    1.0000 </r>
       <r>    0.5295    1.0000 </r>
       <r>    0.5725    1.0000 </r>
       <r>    0.7378    1.0000 </r>
       <r>    0.8093    1.0000 </r>
       <r>    1.0708    1.0000 </r>
       <r>    1.0844    1.0000 </r>
       <r>    1.1223    1.0000 </r>
       <r>    1.2445    1.0000 </r>
       <r>    1.2804    1.0000 </r>
       <r>    1.4743    1.0000 </r>
       <r>    1.5221    1.0000 </r>
       <r>    1.5678    1.0000 </r>
       <r>    1.6634    1.0000 </r>
       <r>    1.7589    1.0000 </r>
       <r>    1.8952    1.0000 </r>
       <r>    1.9514    1.0000 </r>
       <r>    2.0224    1.0000 </r>
       <r>    2.0492    1.0000 </r>
       <r>    2.1220    1.0000 </r>
       <r>    2.1721    1.0000 </r>
       <r>    2.2812    1.0000 </r>
       <r>    2.3427    1.0000 </r>
       <r>    2.3693    1.0000 </r>
       <r>    2.3918    1.0000 </r>
       <r>    2.4577    1.0000 </r>
       <r>    2.4986    1.0000 </r>
       <r>    2.5938    1.0000 </r>
       <r>    2.6319    1.0000 </r>
       <r>    2.6964    1.0000 </r>
       <r>    2.7970    1.0000 </r>
       <r>    2.8376    1.0000 </r>
       <r>    2.8774    1.0000 </r>
       <r>    2.9471    1.0000 </r>
       <r>    3.0018    1.0000 </r>
       <r>    3.0483    1.0000 </r>
       <r>    3.0825    1.0000 </r>
       <r>    3.1567    1.0000 </r>
       <r>    3.2153    1.0000 </r>
       <r>    3.3529    1.0000 </r>
       <r>    3.4019    1.0000 </r>
       <r>    3.5027    1.0000 </r>
       <r>    3.5593    1.0000 </r>
       <r>    4.3693    1.0000 </r>
       <r>    4.7236    1.0000 </r>
       <r>    5.0803    1.0000 </r>
       <r>    5.1706    1.0000 </r>
       <r>    5.7339    1.0000 </r>
       <r>    6.0948    1.0000 </r>
       <r>    6.3101    1.0000 </r>
       <r>    6.6373    1.0000 </r>
       <r>    6.6992    1.0000 </r>
       <r>    6.9960   -0.0000 </r>
       <r>    8.0237    0.0000 </r>
       <r>    8.7207    0.0000 </r>
       <r>    9.2457    0.0000 </r>
       <r>   10.5430    0.0000 </r>
       <r>   11.3156    0.0000 </r>
       <r>   11.5120    0.0000 </r>
       <r>   11.7733    0.0000 </r>
       <r>   12.0907    0.0000 </r>
       <r>   12.4884    0.0000 </r>
       <r>   12.9014    0.0000 </r>
       <r>   13.2602    0.0000 </r>
      </set>
      <set comment="kpoint 35">
       <r>   -6.6530    1.0000 </r>
       <r>   -6.1892    1.0000 </r>
       <r>   -6.0612    1.0000 </r>
       <r>   -5.9607    1.0000 </r>
       <r>    0.4757    1.0000 </r>
       <r>    0.5375    1.0000 </r>
       <r>    0.5771    1.0000 </r>
       <r>    0.7361    1.0000 </r>
       <r>    0.8025    1.0000 </r>
       <r>    1.0768    1.0000 </r>
       <r>    1.0847    1.0000 </r>
       <r>    1.1259    1.0000 </r>
       <r>    1.2355    1.0000 </r>
       <r>    1.2800    1.0000 </r>
       <r>    1.4787    1.0000 </r>
       <r>    1.5330    1.0000 </r>
       <r>    1.5823    1.0000 </r>
       <r>    1.6656    1.0000 </r>
       <r>    1.7383    1.0000 </r>
       <r>    1.8841    1.0000 </r>
       <r>    1.9525    1.0000 </r>
       <r>    2.0362    1.0000 </r>
       <r>    2.0599    1.0000 </r>
       <r>    2.1214    1.0000 </r>
       <r>    2.1872    1.0000 </r>
       <r>    2.2730    1.0000 </r>
       <r>    2.3280    1.0000 </r>
       <r>    2.3631    1.0000 </r>
       <r>    2.3895    1.0000 </r>
       <r>    2.4586    1.0000 </r>
       <r>    2.5043    1.0000 </r>
       <r>    2.5867    1.0000 </r>
       <r>    2.6223    1.0000 </r>
       <r>    2.6962    1.0000 </r>
       <r>    2.8044    1.0000 </r>
       <r>    2.8413    1.0000 </r>
       <r>    2.8800    1.0000 </r>
       <r>    2.9533    1.0000 </r>
       <r>    2.9992    1.0000 </r>
       <r>    3.0491    1.0000 </r>
       <r>    3.0844    1.0000 </r>
       <r>    3.1521    1.0000 </r>
       <r>    3.2321    1.0000 </r>
       <r>    3.3548    1.0000 </r>
       <r>    3.3854    1.0000 </r>
       <r>    3.5316    1.0000 </r>
       <r>    3.5655    1.0000 </r>
       <r>    4.2845    1.0000 </r>
       <r>    4.7071    1.0000 </r>
       <r>    5.0396    1.0000 </r>
       <r>    5.1912    1.0000 </r>
       <r>    5.7298    1.0000 </r>
       <r>    6.1149    1.0000 </r>
       <r>    6.3233    1.0000 </r>
       <r>    6.6421    1.0000 </r>
       <r>    6.7108    1.0000 </r>
       <r>    6.9196   -0.0000 </r>
       <r>    8.0142    0.0000 </r>
       <r>    8.8395    0.0000 </r>
       <r>    9.3156    0.0000 </r>
       <r>   10.4348    0.0000 </r>
       <r>   11.2877    0.0000 </r>
       <r>   11.5041    0.0000 </r>
       <r>   11.7879    0.0000 </r>
       <r>   12.0841    0.0000 </r>
       <r>   12.4707    0.0000 </r>
       <r>   12.9990    0.0000 </r>
       <r>   13.2695    0.0000 </r>
      </set>
      <set comment="kpoint 36">
       <r>   -6.6612    1.0000 </r>
       <r>   -6.1902    1.0000 </r>
       <r>   -6.0536    1.0000 </r>
       <r>   -5.9581    1.0000 </r>
       <r>    0.4769    1.0000 </r>
       <r>    0.5442    1.0000 </r>
       <r>    0.5793    1.0000 </r>
       <r>    0.7383    1.0000 </r>
       <r>    0.7972    1.0000 </r>
       <r>    1.0767    1.0000 </r>
       <r>    1.0852    1.0000 </r>
       <r>    1.1327    1.0000 </r>
       <r>    1.2272    1.0000 </r>
       <r>    1.2799    1.0000 </r>
       <r>    1.4828    1.0000 </r>
       <r>    1.5404    1.0000 </r>
       <r>    1.5979    1.0000 </r>
       <r>    1.6656    1.0000 </r>
       <r>    1.7222    1.0000 </r>
       <r>    1.8664    1.0000 </r>
       <r>    1.9567    1.0000 </r>
       <r>    2.0493    1.0000 </r>
       <r>    2.0683    1.0000 </r>
       <r>    2.1161    1.0000 </r>
       <r>    2.2119    1.0000 </r>
       <r>    2.2661    1.0000 </r>
       <r>    2.3127    1.0000 </r>
       <r>    2.3566    1.0000 </r>
       <r>    2.3887    1.0000 </r>
       <r>    2.4614    1.0000 </r>
       <r>    2.5080    1.0000 </r>
       <r>    2.5787    1.0000 </r>
       <r>    2.6140    1.0000 </r>
       <r>    2.6956    1.0000 </r>
       <r>    2.8094    1.0000 </r>
       <r>    2.8447    1.0000 </r>
       <r>    2.8833    1.0000 </r>
       <r>    2.9596    1.0000 </r>
       <r>    2.9970    1.0000 </r>
       <r>    3.0495    1.0000 </r>
       <r>    3.0866    1.0000 </r>
       <r>    3.1470    1.0000 </r>
       <r>    3.2465    1.0000 </r>
       <r>    3.3532    1.0000 </r>
       <r>    3.3749    1.0000 </r>
       <r>    3.5441    1.0000 </r>
       <r>    3.5945    1.0000 </r>
       <r>    4.1962    1.0000 </r>
       <r>    4.6981    1.0000 </r>
       <r>    4.9979    1.0000 </r>
       <r>    5.2156    1.0000 </r>
       <r>    5.7264    1.0000 </r>
       <r>    6.1346    1.0000 </r>
       <r>    6.3390    1.0000 </r>
       <r>    6.6398    1.0000 </r>
       <r>    6.7207    1.0009 </r>
       <r>    6.8526   -0.0000 </r>
       <r>    8.0060    0.0000 </r>
       <r>    8.9581    0.0000 </r>
       <r>    9.3756    0.0000 </r>
       <r>   10.3268    0.0000 </r>
       <r>   11.2542    0.0000 </r>
       <r>   11.5011    0.0000 </r>
       <r>   11.8009    0.0000 </r>
       <r>   12.0781    0.0000 </r>
       <r>   12.4553    0.0000 </r>
       <r>   13.0761    0.0000 </r>
       <r>   13.2821    0.0000 </r>
      </set>
      <set comment="kpoint 37">
       <r>   -6.6676    1.0000 </r>
       <r>   -6.1911    1.0000 </r>
       <r>   -6.0475    1.0000 </r>
       <r>   -5.9561    1.0000 </r>
       <r>    0.4782    1.0000 </r>
       <r>    0.5496    1.0000 </r>
       <r>    0.5792    1.0000 </r>
       <r>    0.7434    1.0000 </r>
       <r>    0.7930    1.0000 </r>
       <r>    1.0735    1.0000 </r>
       <r>    1.0856    1.0000 </r>
       <r>    1.1406    1.0000 </r>
       <r>    1.2198    1.0000 </r>
       <r>    1.2798    1.0000 </r>
       <r>    1.4869    1.0000 </r>
       <r>    1.5451    1.0000 </r>
       <r>    1.6109    1.0000 </r>
       <r>    1.6625    1.0000 </r>
       <r>    1.7157    1.0000 </r>
       <r>    1.8448    1.0000 </r>
       <r>    1.9628    1.0000 </r>
       <r>    2.0563    1.0000 </r>
       <r>    2.0731    1.0000 </r>
       <r>    2.1187    1.0000 </r>
       <r>    2.2356    1.0000 </r>
       <r>    2.2606    1.0000 </r>
       <r>    2.2985    1.0000 </r>
       <r>    2.3488    1.0000 </r>
       <r>    2.3910    1.0000 </r>
       <r>    2.4647    1.0000 </r>
       <r>    2.5086    1.0000 </r>
       <r>    2.5705    1.0000 </r>
       <r>    2.6082    1.0000 </r>
       <r>    2.6948    1.0000 </r>
       <r>    2.8123    1.0000 </r>
       <r>    2.8474    1.0000 </r>
       <r>    2.8872    1.0000 </r>
       <r>    2.9655    1.0000 </r>
       <r>    2.9953    1.0000 </r>
       <r>    3.0497    1.0000 </r>
       <r>    3.0888    1.0000 </r>
       <r>    3.1424    1.0000 </r>
       <r>    3.2548    1.0000 </r>
       <r>    3.3514    1.0000 </r>
       <r>    3.3725    1.0000 </r>
       <r>    3.5405    1.0000 </r>
       <r>    3.6439    1.0000 </r>
       <r>    4.1077    1.0000 </r>
       <r>    4.6956    1.0000 </r>
       <r>    4.9601    1.0000 </r>
       <r>    5.2376    1.0000 </r>
       <r>    5.7238    1.0000 </r>
       <r>    6.1525    1.0000 </r>
       <r>    6.3585    1.0000 </r>
       <r>    6.6255    1.0000 </r>
       <r>    6.7286    1.0161 </r>
       <r>    6.8015   -0.0000 </r>
       <r>    7.9993    0.0000 </r>
       <r>    9.0719    0.0000 </r>
       <r>    9.4225    0.0000 </r>
       <r>   10.2242    0.0000 </r>
       <r>   11.2209    0.0000 </r>
       <r>   11.5011    0.0000 </r>
       <r>   11.8115    0.0000 </r>
       <r>   12.0730    0.0000 </r>
       <r>   12.4428    0.0000 </r>
       <r>   13.1345    0.0000 </r>
       <r>   13.2955    0.0000 </r>
      </set>
      <set comment="kpoint 38">
       <r>   -6.6722    1.0000 </r>
       <r>   -6.1919    1.0000 </r>
       <r>   -6.0430    1.0000 </r>
       <r>   -5.9546    1.0000 </r>
       <r>    0.4795    1.0000 </r>
       <r>    0.5537    1.0000 </r>
       <r>    0.5777    1.0000 </r>
       <r>    0.7495    1.0000 </r>
       <r>    0.7894    1.0000 </r>
       <r>    1.0701    1.0000 </r>
       <r>    1.0855    1.0000 </r>
       <r>    1.1479    1.0000 </r>
       <r>    1.2138    1.0000 </r>
       <r>    1.2796    1.0000 </r>
       <r>    1.4906    1.0000 </r>
       <r>    1.5478    1.0000 </r>
       <r>    1.6179    1.0000 </r>
       <r>    1.6581    1.0000 </r>
       <r>    1.7207    1.0000 </r>
       <r>    1.8216    1.0000 </r>
       <r>    1.9693    1.0000 </r>
       <r>    2.0540    1.0000 </r>
       <r>    2.0782    1.0000 </r>
       <r>    2.1281    1.0000 </r>
       <r>    2.2502    1.0000 </r>
       <r>    2.2605    1.0000 </r>
       <r>    2.2874    1.0000 </r>
       <r>    2.3399    1.0000 </r>
       <r>    2.3964    1.0000 </r>
       <r>    2.4672    1.0000 </r>
       <r>    2.5063    1.0000 </r>
       <r>    2.5638    1.0000 </r>
       <r>    2.6048    1.0000 </r>
       <r>    2.6940    1.0000 </r>
       <r>    2.8136    1.0000 </r>
       <r>    2.8494    1.0000 </r>
       <r>    2.8909    1.0000 </r>
       <r>    2.9703    1.0000 </r>
       <r>    2.9941    1.0000 </r>
       <r>    3.0496    1.0000 </r>
       <r>    3.0908    1.0000 </r>
       <r>    3.1387    1.0000 </r>
       <r>    3.2563    1.0000 </r>
       <r>    3.3543    1.0000 </r>
       <r>    3.3734    1.0000 </r>
       <r>    3.5334    1.0000 </r>
       <r>    3.7018    1.0000 </r>
       <r>    4.0218    1.0000 </r>
       <r>    4.6975    1.0000 </r>
       <r>    4.9294    1.0000 </r>
       <r>    5.2545    1.0000 </r>
       <r>    5.7221    1.0000 </r>
       <r>    6.1667    1.0000 </r>
       <r>    6.3824    1.0000 </r>
       <r>    6.5970    1.0000 </r>
       <r>    6.7342    1.0353 </r>
       <r>    6.7713   -0.0011 </r>
       <r>    7.9944    0.0000 </r>
       <r>    9.1739    0.0000 </r>
       <r>    9.4531    0.0000 </r>
       <r>   10.1352    0.0000 </r>
       <r>   11.1931    0.0000 </r>
       <r>   11.5022    0.0000 </r>
       <r>   11.8194    0.0000 </r>
       <r>   12.0690    0.0000 </r>
       <r>   12.4337    0.0000 </r>
       <r>   13.1757    0.0000 </r>
       <r>   13.3043    0.0000 </r>
      </set>
      <set comment="kpoint 39">
       <r>   -6.6750    1.0000 </r>
       <r>   -6.1924    1.0000 </r>
       <r>   -6.0403    1.0000 </r>
       <r>   -5.9537    1.0000 </r>
       <r>    0.4805    1.0000 </r>
       <r>    0.5565    1.0000 </r>
       <r>    0.5761    1.0000 </r>
       <r>    0.7548    1.0000 </r>
       <r>    0.7867    1.0000 </r>
       <r>    1.0676    1.0000 </r>
       <r>    1.0852    1.0000 </r>
       <r>    1.1530    1.0000 </r>
       <r>    1.2098    1.0000 </r>
       <r>    1.2795    1.0000 </r>
       <r>    1.4935    1.0000 </r>
       <r>    1.5490    1.0000 </r>
       <r>    1.6193    1.0000 </r>
       <r>    1.6555    1.0000 </r>
       <r>    1.7330    1.0000 </r>
       <r>    1.8002    1.0000 </r>
       <r>    1.9745    1.0000 </r>
       <r>    2.0490    1.0000 </r>
       <r>    2.0826    1.0000 </r>
       <r>    2.1374    1.0000 </r>
       <r>    2.2487    1.0000 </r>
       <r>    2.2689    1.0000 </r>
       <r>    2.2832    1.0000 </r>
       <r>    2.3316    1.0000 </r>
       <r>    2.4026    1.0000 </r>
       <r>    2.4680    1.0000 </r>
       <r>    2.5030    1.0000 </r>
       <r>    2.5596    1.0000 </r>
       <r>    2.6032    1.0000 </r>
       <r>    2.6934    1.0000 </r>
       <r>    2.8142    1.0000 </r>
       <r>    2.8507    1.0000 </r>
       <r>    2.8934    1.0000 </r>
       <r>    2.9734    1.0000 </r>
       <r>    2.9935    1.0000 </r>
       <r>    3.0495    1.0000 </r>
       <r>    3.0922    1.0000 </r>
       <r>    3.1364    1.0000 </r>
       <r>    3.2546    1.0000 </r>
       <r>    3.3587    1.0000 </r>
       <r>    3.3754    1.0000 </r>
       <r>    3.5269    1.0000 </r>
       <r>    3.7634    1.0000 </r>
       <r>    3.9430    1.0000 </r>
       <r>    4.7010    1.0000 </r>
       <r>    4.9087    1.0000 </r>
       <r>    5.2652    1.0000 </r>
       <r>    5.7211    1.0000 </r>
       <r>    6.1759    1.0000 </r>
       <r>    6.4071    1.0000 </r>
       <r>    6.5637    1.0000 </r>
       <r>    6.7374    1.0066 </r>
       <r>    6.7582   -0.0354 </r>
       <r>    7.9914    0.0000 </r>
       <r>    9.2513    0.0000 </r>
       <r>    9.4661    0.0000 </r>
       <r>   10.0720    0.0000 </r>
       <r>   11.1747    0.0000 </r>
       <r>   11.5033    0.0000 </r>
       <r>   11.8242    0.0000 </r>
       <r>   12.0664    0.0000 </r>
       <r>   12.4281    0.0000 </r>
       <r>   13.2003    0.0000 </r>
       <r>   13.3094    0.0000 </r>
      </set>
      <set comment="kpoint 40">
       <r>   -6.6759    1.0000 </r>
       <r>   -6.1926    1.0000 </r>
       <r>   -6.0394    1.0000 </r>
       <r>   -5.9534    1.0000 </r>
       <r>    0.4808    1.0000 </r>
       <r>    0.5575    1.0000 </r>
       <r>    0.5753    1.0000 </r>
       <r>    0.7569    1.0000 </r>
       <r>    0.7855    1.0000 </r>
       <r>    1.0667    1.0000 </r>
       <r>    1.0850    1.0000 </r>
       <r>    1.1549    1.0000 </r>
       <r>    1.2083    1.0000 </r>
       <r>    1.2794    1.0000 </r>
       <r>    1.4945    1.0000 </r>
       <r>    1.5494    1.0000 </r>
       <r>    1.6190    1.0000 </r>
       <r>    1.6548    1.0000 </r>
       <r>    1.7412    1.0000 </r>
       <r>    1.7893    1.0000 </r>
       <r>    1.9765    1.0000 </r>
       <r>    2.0468    1.0000 </r>
       <r>    2.0842    1.0000 </r>
       <r>    2.1411    1.0000 </r>
       <r>    2.2471    1.0000 </r>
       <r>    2.2701    1.0000 </r>
       <r>    2.2849    1.0000 </r>
       <r>    2.3277    1.0000 </r>
       <r>    2.4055    1.0000 </r>
       <r>    2.4679    1.0000 </r>
       <r>    2.5015    1.0000 </r>
       <r>    2.5583    1.0000 </r>
       <r>    2.6028    1.0000 </r>
       <r>    2.6932    1.0000 </r>
       <r>    2.8143    1.0000 </r>
       <r>    2.8511    1.0000 </r>
       <r>    2.8944    1.0000 </r>
       <r>    2.9745    1.0000 </r>
       <r>    2.9934    1.0000 </r>
       <r>    3.0495    1.0000 </r>
       <r>    3.0926    1.0000 </r>
       <r>    3.1356    1.0000 </r>
       <r>    3.2536    1.0000 </r>
       <r>    3.3605    1.0000 </r>
       <r>    3.3766    1.0000 </r>
       <r>    3.5243    1.0000 </r>
       <r>    3.8043    1.0000 </r>
       <r>    3.8963    1.0000 </r>
       <r>    4.7026    1.0000 </r>
       <r>    4.9012    1.0000 </r>
       <r>    5.2688    1.0000 </r>
       <r>    5.7208    1.0000 </r>
       <r>    6.1790    1.0000 </r>
       <r>    6.4198    1.0000 </r>
       <r>    6.5472    1.0000 </r>
       <r>    6.7384    0.9840 </r>
       <r>    6.7548   -0.0054 </r>
       <r>    7.9903    0.0000 </r>
       <r>    9.2822    0.0000 </r>
       <r>    9.4677    0.0000 </r>
       <r>   10.0487    0.0000 </r>
       <r>   11.1683    0.0000 </r>
       <r>   11.5037    0.0000 </r>
       <r>   11.8258    0.0000 </r>
       <r>   12.0655    0.0000 </r>
       <r>   12.4262    0.0000 </r>
       <r>   13.2086    0.0000 </r>
       <r>   13.3119    0.0000 </r>
      </set>
      <set comment="kpoint 41">
       <r>   -6.6759    1.0000 </r>
       <r>   -6.1926    1.0000 </r>
       <r>   -6.0394    1.0000 </r>
       <r>   -5.9534    1.0000 </r>
       <r>    0.4808    1.0000 </r>
       <r>    0.5575    1.0000 </r>
       <r>    0.5753    1.0000 </r>
       <r>    0.7569    1.0000 </r>
       <r>    0.7855    1.0000 </r>
       <r>    1.0667    1.0000 </r>
       <r>    1.0850    1.0000 </r>
       <r>    1.1549    1.0000 </r>
       <r>    1.2083    1.0000 </r>
       <r>    1.2794    1.0000 </r>
       <r>    1.4945    1.0000 </r>
       <r>    1.5494    1.0000 </r>
       <r>    1.6190    1.0000 </r>
       <r>    1.6548    1.0000 </r>
       <r>    1.7412    1.0000 </r>
       <r>    1.7893    1.0000 </r>
       <r>    1.9765    1.0000 </r>
       <r>    2.0468    1.0000 </r>
       <r>    2.0842    1.0000 </r>
       <r>    2.1411    1.0000 </r>
       <r>    2.2471    1.0000 </r>
       <r>    2.2701    1.0000 </r>
       <r>    2.2849    1.0000 </r>
       <r>    2.3277    1.0000 </r>
       <r>    2.4055    1.0000 </r>
       <r>    2.4679    1.0000 </r>
       <r>    2.5015    1.0000 </r>
       <r>    2.5583    1.0000 </r>
       <r>    2.6028    1.0000 </r>
       <r>    2.6932    1.0000 </r>
       <r>    2.8143    1.0000 </r>
       <r>    2.8511    1.0000 </r>
       <r>    2.8944    1.0000 </r>
       <r>    2.9745    1.0000 </r>
       <r>    2.9934    1.0000 </r>
       <r>    3.0495    1.0000 </r>
       <r>    3.0926    1.0000 </r>
       <r>    3.1356    1.0000 </r>
       <r>    3.2536    1.0000 </r>
       <r>    3.3605    1.0000 </r>
       <r>    3.3766    1.0000 </r>
       <r>    3.5243    1.0000 </r>
       <r>    3.8043    1.0000 </r>
       <r>    3.8963    1.0000 </r>
       <r>    4.7026    1.0000 </r>
       <r>    4.9012    1.0000 </r>
       <r>    5.2688    1.0000 </r>
       <r>    5.7208    1.0000 </r>
       <r>    6.1790    1.0000 </r>
       <r>    6.4198    1.0000 </r>
       <r>    6.5472    1.0000 </r>
       <r>    6.7384    0.9840 </r>
       <r>    6.7548   -0.0054 </r>
       <r>    7.9903    0.0000 </r>
       <r>    9.2822    0.0000 </r>
       <r>    9.4677    0.0000 </r>
       <r>   10.0487    0.0000 </r>
       <r>   11.1683    0.0000 </r>
       <r>   11.5037    0.0000 </r>
       <r>   11.8258    0.0000 </r>
       <r>   12.0655    0.0000 </r>
       <r>   12.4262    0.0000 </r>
       <r>   13.2087    0.0000 </r>
       <r>   13.3115    0.0000 </r>
      </set>
      <set comment="kpoint 42">
       <r>   -6.6753    1.0000 </r>
       <r>   -6.1936    1.0000 </r>
       <r>   -6.0393    1.0000 </r>
       <r>   -5.9532    1.0000 </r>
       <r>    0.4807    1.0000 </r>
       <r>    0.5578    1.0000 </r>
       <r>    0.5757    1.0000 </r>
       <r>    0.7536    1.0000 </r>
       <r>    0.7885    1.0000 </r>
       <r>    1.0570    1.0000 </r>
       <r>    1.0885    1.0000 </r>
       <r>    1.1609    1.0000 </r>
       <r>    1.2089    1.0000 </r>
       <r>    1.2821    1.0000 </r>
       <r>    1.4945    1.0000 </r>
       <r>    1.5495    1.0000 </r>
       <r>    1.6190    1.0000 </r>
       <r>    1.6547    1.0000 </r>
       <r>    1.7415    1.0000 </r>
       <r>    1.7897    1.0000 </r>
       <r>    1.9749    1.0000 </r>
       <r>    2.0425    1.0000 </r>
       <r>    2.0866    1.0000 </r>
       <r>    2.1430    1.0000 </r>
       <r>    2.2419    1.0000 </r>
       <r>    2.2675    1.0000 </r>
       <r>    2.2874    1.0000 </r>
       <r>    2.3313    1.0000 </r>
       <r>    2.4083    1.0000 </r>
       <r>    2.4663    1.0000 </r>
       <r>    2.5005    1.0000 </r>
       <r>    2.5575    1.0000 </r>
       <r>    2.6017    1.0000 </r>
       <r>    2.6973    1.0000 </r>
       <r>    2.8137    1.0000 </r>
       <r>    2.8478    1.0000 </r>
       <r>    2.8954    1.0000 </r>
       <r>    2.9735    1.0000 </r>
       <r>    2.9933    1.0000 </r>
       <r>    3.0497    1.0000 </r>
       <r>    3.0916    1.0000 </r>
       <r>    3.1316    1.0000 </r>
       <r>    3.2588    1.0000 </r>
       <r>    3.3604    1.0000 </r>
       <r>    3.3784    1.0000 </r>
       <r>    3.5231    1.0000 </r>
       <r>    3.8033    1.0000 </r>
       <r>    3.8981    1.0000 </r>
       <r>    4.7011    1.0000 </r>
       <r>    4.9035    1.0000 </r>
       <r>    5.2730    1.0000 </r>
       <r>    5.7151    1.0000 </r>
       <r>    6.1773    1.0000 </r>
       <r>    6.4185    1.0000 </r>
       <r>    6.5226    1.0000 </r>
       <r>    6.7371    1.0127 </r>
       <r>    6.7805   -0.0000 </r>
       <r>    7.9991    0.0000 </r>
       <r>    9.2679    0.0000 </r>
       <r>    9.4797    0.0000 </r>
       <r>   10.0517    0.0000 </r>
       <r>   11.1707    0.0000 </r>
       <r>   11.5032    0.0000 </r>
       <r>   11.8237    0.0000 </r>
       <r>   12.0640    0.0000 </r>
       <r>   12.4233    0.0000 </r>
       <r>   13.2116    0.0000 </r>
       <r>   13.3124    0.0000 </r>
      </set>
      <set comment="kpoint 43">
       <r>   -6.6732    1.0000 </r>
       <r>   -6.1967    1.0000 </r>
       <r>   -6.0391    1.0000 </r>
       <r>   -5.9528    1.0000 </r>
       <r>    0.4802    1.0000 </r>
       <r>    0.5584    1.0000 </r>
       <r>    0.5773    1.0000 </r>
       <r>    0.7464    1.0000 </r>
       <r>    0.7948    1.0000 </r>
       <r>    1.0382    1.0000 </r>
       <r>    1.0913    1.0000 </r>
       <r>    1.1760    1.0000 </r>
       <r>    1.2105    1.0000 </r>
       <r>    1.2902    1.0000 </r>
       <r>    1.4942    1.0000 </r>
       <r>    1.5500    1.0000 </r>
       <r>    1.6190    1.0000 </r>
       <r>    1.6545    1.0000 </r>
       <r>    1.7423    1.0000 </r>
       <r>    1.7911    1.0000 </r>
       <r>    1.9700    1.0000 </r>
       <r>    2.0322    1.0000 </r>
       <r>    2.0917    1.0000 </r>
       <r>    2.1479    1.0000 </r>
       <r>    2.2293    1.0000 </r>
       <r>    2.2636    1.0000 </r>
       <r>    2.2901    1.0000 </r>
       <r>    2.3401    1.0000 </r>
       <r>    2.4159    1.0000 </r>
       <r>    2.4619    1.0000 </r>
       <r>    2.4980    1.0000 </r>
       <r>    2.5553    1.0000 </r>
       <r>    2.5991    1.0000 </r>
       <r>    2.7084    1.0000 </r>
       <r>    2.8117    1.0000 </r>
       <r>    2.8396    1.0000 </r>
       <r>    2.8971    1.0000 </r>
       <r>    2.9706    1.0000 </r>
       <r>    2.9927    1.0000 </r>
       <r>    3.0503    1.0000 </r>
       <r>    3.0878    1.0000 </r>
       <r>    3.1244    1.0000 </r>
       <r>    3.2706    1.0000 </r>
       <r>    3.3599    1.0000 </r>
       <r>    3.3844    1.0000 </r>
       <r>    3.5193    1.0000 </r>
       <r>    3.8004    1.0000 </r>
       <r>    3.9038    1.0000 </r>
       <r>    4.6964    1.0000 </r>
       <r>    4.9101    1.0000 </r>
       <r>    5.2853    1.0000 </r>
       <r>    5.6988    1.0000 </r>
       <r>    6.1717    1.0000 </r>
       <r>    6.4136    1.0000 </r>
       <r>    6.4703    1.0000 </r>
       <r>    6.7350    1.0334 </r>
       <r>    6.8361   -0.0000 </r>
       <r>    8.0249    0.0000 </r>
       <r>    9.2322    0.0000 </r>
       <r>    9.5083    0.0000 </r>
       <r>   10.0605    0.0000 </r>
       <r>   11.1776    0.0000 </r>
       <r>   11.5014    0.0000 </r>
       <r>   11.8178    0.0000 </r>
       <r>   12.0596    0.0000 </r>
       <r>   12.4145    0.0000 </r>
       <r>   13.2186    0.0000 </r>
       <r>   13.3152    0.0000 </r>
      </set>
      <set comment="kpoint 44">
       <r>   -6.6698    1.0000 </r>
       <r>   -6.2017    1.0000 </r>
       <r>   -6.0387    1.0000 </r>
       <r>   -5.9523    1.0000 </r>
       <r>    0.4794    1.0000 </r>
       <r>    0.5584    1.0000 </r>
       <r>    0.5805    1.0000 </r>
       <r>    0.7387    1.0000 </r>
       <r>    0.8017    1.0000 </r>
       <r>    1.0169    1.0000 </r>
       <r>    1.0916    1.0000 </r>
       <r>    1.1953    1.0000 </r>
       <r>    1.2126    1.0000 </r>
       <r>    1.3037    1.0000 </r>
       <r>    1.4937    1.0000 </r>
       <r>    1.5509    1.0000 </r>
       <r>    1.6191    1.0000 </r>
       <r>    1.6541    1.0000 </r>
       <r>    1.7434    1.0000 </r>
       <r>    1.7936    1.0000 </r>
       <r>    1.9622    1.0000 </r>
       <r>    2.0192    1.0000 </r>
       <r>    2.0975    1.0000 </r>
       <r>    2.1533    1.0000 </r>
       <r>    2.2144    1.0000 </r>
       <r>    2.2598    1.0000 </r>
       <r>    2.2910    1.0000 </r>
       <r>    2.3497    1.0000 </r>
       <r>    2.4265    1.0000 </r>
       <r>    2.4565    1.0000 </r>
       <r>    2.4957    1.0000 </r>
       <r>    2.5522    1.0000 </r>
       <r>    2.5960    1.0000 </r>
       <r>    2.7239    1.0000 </r>
       <r>    2.8076    1.0000 </r>
       <r>    2.8298    1.0000 </r>
       <r>    2.8967    1.0000 </r>
       <r>    2.9657    1.0000 </r>
       <r>    2.9905    1.0000 </r>
       <r>    3.0505    1.0000 </r>
       <r>    3.0818    1.0000 </r>
       <r>    3.1215    1.0000 </r>
       <r>    3.2827    1.0000 </r>
       <r>    3.3588    1.0000 </r>
       <r>    3.3952    1.0000 </r>
       <r>    3.5131    1.0000 </r>
       <r>    3.7956    1.0000 </r>
       <r>    3.9138    1.0000 </r>
       <r>    4.6884    1.0000 </r>
       <r>    4.9208    1.0000 </r>
       <r>    5.3043    1.0000 </r>
       <r>    5.6737    1.0000 </r>
       <r>    6.1604    1.0000 </r>
       <r>    6.3912    1.0000 </r>
       <r>    6.4265    1.0000 </r>
       <r>    6.7318    1.0304 </r>
       <r>    6.9018   -0.0000 </r>
       <r>    8.0666    0.0000 </r>
       <r>    9.1849    0.0000 </r>
       <r>    9.5439    0.0000 </r>
       <r>   10.0752    0.0000 </r>
       <r>   11.1889    0.0000 </r>
       <r>   11.4982    0.0000 </r>
       <r>   11.8085    0.0000 </r>
       <r>   12.0522    0.0000 </r>
       <r>   12.4003    0.0000 </r>
       <r>   13.2286    0.0000 </r>
       <r>   13.3198    0.0000 </r>
      </set>
      <set comment="kpoint 45">
       <r>   -6.6651    1.0000 </r>
       <r>   -6.2087    1.0000 </r>
       <r>   -6.0380    1.0000 </r>
       <r>   -5.9516    1.0000 </r>
       <r>    0.4782    1.0000 </r>
       <r>    0.5572    1.0000 </r>
       <r>    0.5856    1.0000 </r>
       <r>    0.7325    1.0000 </r>
       <r>    0.8084    1.0000 </r>
       <r>    0.9949    1.0000 </r>
       <r>    1.0905    1.0000 </r>
       <r>    1.2087    1.0000 </r>
       <r>    1.2222    1.0000 </r>
       <r>    1.3218    1.0000 </r>
       <r>    1.4928    1.0000 </r>
       <r>    1.5523    1.0000 </r>
       <r>    1.6193    1.0000 </r>
       <r>    1.6535    1.0000 </r>
       <r>    1.7446    1.0000 </r>
       <r>    1.7975    1.0000 </r>
       <r>    1.9517    1.0000 </r>
       <r>    2.0057    1.0000 </r>
       <r>    2.1031    1.0000 </r>
       <r>    2.1560    1.0000 </r>
       <r>    2.2013    1.0000 </r>
       <r>    2.2566    1.0000 </r>
       <r>    2.2906    1.0000 </r>
       <r>    2.3555    1.0000 </r>
       <r>    2.4372    1.0000 </r>
       <r>    2.4540    1.0000 </r>
       <r>    2.4956    1.0000 </r>
       <r>    2.5487    1.0000 </r>
       <r>    2.5931    1.0000 </r>
       <r>    2.7412    1.0000 </r>
       <r>    2.8000    1.0000 </r>
       <r>    2.8210    1.0000 </r>
       <r>    2.8924    1.0000 </r>
       <r>    2.9593    1.0000 </r>
       <r>    2.9858    1.0000 </r>
       <r>    3.0495    1.0000 </r>
       <r>    3.0780    1.0000 </r>
       <r>    3.1241    1.0000 </r>
       <r>    3.2914    1.0000 </r>
       <r>    3.3573    1.0000 </r>
       <r>    3.4107    1.0000 </r>
       <r>    3.5048    1.0000 </r>
       <r>    3.7890    1.0000 </r>
       <r>    3.9289    1.0000 </r>
       <r>    4.6770    1.0000 </r>
       <r>    4.9353    1.0000 </r>
       <r>    5.3273    1.0000 </r>
       <r>    5.6430    1.0000 </r>
       <r>    6.1398    1.0000 </r>
       <r>    6.3407    1.0000 </r>
       <r>    6.4134    1.0000 </r>
       <r>    6.7273    1.0113 </r>
       <r>    6.9707   -0.0000 </r>
       <r>    8.1223    0.0000 </r>
       <r>    9.1308    0.0000 </r>
       <r>    9.5815    0.0000 </r>
       <r>   10.0955    0.0000 </r>
       <r>   11.2040    0.0000 </r>
       <r>   11.4930    0.0000 </r>
       <r>   11.7967    0.0000 </r>
       <r>   12.0418    0.0000 </r>
       <r>   12.3812    0.0000 </r>
       <r>   13.2386    0.0000 </r>
       <r>   13.3297    0.0000 </r>
      </set>
      <set comment="kpoint 46">
       <r>   -6.6591    1.0000 </r>
       <r>   -6.2175    1.0000 </r>
       <r>   -6.0370    1.0000 </r>
       <r>   -5.9510    1.0000 </r>
       <r>    0.4765    1.0000 </r>
       <r>    0.5544    1.0000 </r>
       <r>    0.5923    1.0000 </r>
       <r>    0.7287    1.0000 </r>
       <r>    0.8148    1.0000 </r>
       <r>    0.9733    1.0000 </r>
       <r>    1.0884    1.0000 </r>
       <r>    1.2103    1.0000 </r>
       <r>    1.2435    1.0000 </r>
       <r>    1.3436    1.0000 </r>
       <r>    1.4915    1.0000 </r>
       <r>    1.5542    1.0000 </r>
       <r>    1.6198    1.0000 </r>
       <r>    1.6527    1.0000 </r>
       <r>    1.7456    1.0000 </r>
       <r>    1.8029    1.0000 </r>
       <r>    1.9389    1.0000 </r>
       <r>    1.9931    1.0000 </r>
       <r>    2.1075    1.0000 </r>
       <r>    2.1525    1.0000 </r>
       <r>    2.1926    1.0000 </r>
       <r>    2.2544    1.0000 </r>
       <r>    2.2895    1.0000 </r>
       <r>    2.3546    1.0000 </r>
       <r>    2.4447    1.0000 </r>
       <r>    2.4564    1.0000 </r>
       <r>    2.5008    1.0000 </r>
       <r>    2.5455    1.0000 </r>
       <r>    2.5908    1.0000 </r>
       <r>    2.7583    1.0000 </r>
       <r>    2.7890    1.0000 </r>
       <r>    2.8143    1.0000 </r>
       <r>    2.8837    1.0000 </r>
       <r>    2.9517    1.0000 </r>
       <r>    2.9799    1.0000 </r>
       <r>    3.0476    1.0000 </r>
       <r>    3.0787    1.0000 </r>
       <r>    3.1312    1.0000 </r>
       <r>    3.2964    1.0000 </r>
       <r>    3.3552    1.0000 </r>
       <r>    3.4283    1.0000 </r>
       <r>    3.4954    1.0000 </r>
       <r>    3.7809    1.0000 </r>
       <r>    3.9496    1.0000 </r>
       <r>    4.6617    1.0000 </r>
       <r>    4.9530    1.0000 </r>
       <r>    5.3498    1.0000 </r>
       <r>    5.6119    1.0000 </r>
       <r>    6.1049    1.0000 </r>
       <r>    6.2964    1.0000 </r>
       <r>    6.4049    1.0000 </r>
       <r>    6.7214    1.0013 </r>
       <r>    7.0405    0.0000 </r>
       <r>    8.1902    0.0000 </r>
       <r>    9.0721    0.0000 </r>
       <r>    9.6191    0.0000 </r>
       <r>   10.1213    0.0000 </r>
       <r>   11.2223    0.0000 </r>
       <r>   11.4854    0.0000 </r>
       <r>   11.7836    0.0000 </r>
       <r>   12.0285    0.0000 </r>
       <r>   12.3578    0.0000 </r>
       <r>   13.2446    0.0000 </r>
       <r>   13.3411    0.0000 </r>
      </set>
      <set comment="kpoint 47">
       <r>   -6.6517    1.0000 </r>
       <r>   -6.2280    1.0000 </r>
       <r>   -6.0356    1.0000 </r>
       <r>   -5.9505    1.0000 </r>
       <r>    0.4741    1.0000 </r>
       <r>    0.5503    1.0000 </r>
       <r>    0.6004    1.0000 </r>
       <r>    0.7281    1.0000 </r>
       <r>    0.8212    1.0000 </r>
       <r>    0.9526    1.0000 </r>
       <r>    1.0854    1.0000 </r>
       <r>    1.2100    1.0000 </r>
       <r>    1.2662    1.0000 </r>
       <r>    1.3675    1.0000 </r>
       <r>    1.4896    1.0000 </r>
       <r>    1.5566    1.0000 </r>
       <r>    1.6206    1.0000 </r>
       <r>    1.6519    1.0000 </r>
       <r>    1.7464    1.0000 </r>
       <r>    1.8096    1.0000 </r>
       <r>    1.9246    1.0000 </r>
       <r>    1.9820    1.0000 </r>
       <r>    2.1095    1.0000 </r>
       <r>    2.1440    1.0000 </r>
       <r>    2.1875    1.0000 </r>
       <r>    2.2532    1.0000 </r>
       <r>    2.2884    1.0000 </r>
       <r>    2.3478    1.0000 </r>
       <r>    2.4457    1.0000 </r>
       <r>    2.4647    1.0000 </r>
       <r>    2.5122    1.0000 </r>
       <r>    2.5435    1.0000 </r>
       <r>    2.5897    1.0000 </r>
       <r>    2.7700    1.0000 </r>
       <r>    2.7788    1.0000 </r>
       <r>    2.8079    1.0000 </r>
       <r>    2.8719    1.0000 </r>
       <r>    2.9435    1.0000 </r>
       <r>    2.9749    1.0000 </r>
       <r>    3.0456    1.0000 </r>
       <r>    3.0820    1.0000 </r>
       <r>    3.1424    1.0000 </r>
       <r>    3.2983    1.0000 </r>
       <r>    3.3528    1.0000 </r>
       <r>    3.4426    1.0000 </r>
       <r>    3.4888    1.0000 </r>
       <r>    3.7715    1.0000 </r>
       <r>    3.9764    1.0000 </r>
       <r>    4.6419    1.0000 </r>
       <r>    4.9733    1.0000 </r>
       <r>    5.3642    1.0000 </r>
       <r>    5.5886    1.0000 </r>
       <r>    6.0552    1.0000 </r>
       <r>    6.2669    1.0000 </r>
       <r>    6.3961    1.0000 </r>
       <r>    6.7140    1.0000 </r>
       <r>    7.1104    0.0000 </r>
       <r>    8.2680    0.0000 </r>
       <r>    9.0097    0.0000 </r>
       <r>    9.6554    0.0000 </r>
       <r>   10.1523    0.0000 </r>
       <r>   11.2426    0.0000 </r>
       <r>   11.4749    0.0000 </r>
       <r>   11.7701    0.0000 </r>
       <r>   12.0126    0.0000 </r>
       <r>   12.3306    0.0000 </r>
       <r>   13.2358    0.0000 </r>
       <r>   13.3422    0.0000 </r>
      </set>
      <set comment="kpoint 48">
       <r>   -6.6432    1.0000 </r>
       <r>   -6.2401    1.0000 </r>
       <r>   -6.0337    1.0000 </r>
       <r>   -5.9503    1.0000 </r>
       <r>    0.4709    1.0000 </r>
       <r>    0.5450    1.0000 </r>
       <r>    0.6096    1.0000 </r>
       <r>    0.7306    1.0000 </r>
       <r>    0.8281    1.0000 </r>
       <r>    0.9334    1.0000 </r>
       <r>    1.0814    1.0000 </r>
       <r>    1.2090    1.0000 </r>
       <r>    1.2884    1.0000 </r>
       <r>    1.3923    1.0000 </r>
       <r>    1.4874    1.0000 </r>
       <r>    1.5596    1.0000 </r>
       <r>    1.6217    1.0000 </r>
       <r>    1.6511    1.0000 </r>
       <r>    1.7469    1.0000 </r>
       <r>    1.8171    1.0000 </r>
       <r>    1.9101    1.0000 </r>
       <r>    1.9728    1.0000 </r>
       <r>    2.1071    1.0000 </r>
       <r>    2.1354    1.0000 </r>
       <r>    2.1827    1.0000 </r>
       <r>    2.2506    1.0000 </r>
       <r>    2.2884    1.0000 </r>
       <r>    2.3388    1.0000 </r>
       <r>    2.4407    1.0000 </r>
       <r>    2.4776    1.0000 </r>
       <r>    2.5267    1.0000 </r>
       <r>    2.5430    1.0000 </r>
       <r>    2.5909    1.0000 </r>
       <r>    2.7599    1.0000 </r>
       <r>    2.7824    1.0000 </r>
       <r>    2.8014    1.0000 </r>
       <r>    2.8619    1.0000 </r>
       <r>    2.9353    1.0000 </r>
       <r>    2.9721    1.0000 </r>
       <r>    3.0439    1.0000 </r>
       <r>    3.0861    1.0000 </r>
       <r>    3.1571    1.0000 </r>
       <r>    3.2984    1.0000 </r>
       <r>    3.3501    1.0000 </r>
       <r>    3.4436    1.0000 </r>
       <r>    3.4942    1.0000 </r>
       <r>    3.7612    1.0000 </r>
       <r>    4.0090    1.0000 </r>
       <r>    4.6168    1.0000 </r>
       <r>    4.9957    1.0000 </r>
       <r>    5.3612    1.0000 </r>
       <r>    5.5814    1.0000 </r>
       <r>    5.9969    1.0000 </r>
       <r>    6.2491    1.0000 </r>
       <r>    6.3866    1.0000 </r>
       <r>    6.7050    1.0000 </r>
       <r>    7.1801    0.0000 </r>
       <r>    8.3538    0.0000 </r>
       <r>    8.9442    0.0000 </r>
       <r>    9.6896    0.0000 </r>
       <r>   10.1885    0.0000 </r>
       <r>   11.2634    0.0000 </r>
       <r>   11.4618    0.0000 </r>
       <r>   11.7569    0.0000 </r>
       <r>   11.9952    0.0000 </r>
       <r>   12.3004    0.0000 </r>
       <r>   13.2119    0.0000 </r>
       <r>   13.3349    0.0000 </r>
      </set>
      <set comment="kpoint 49">
       <r>   -6.6334    1.0000 </r>
       <r>   -6.2536    1.0000 </r>
       <r>   -6.0315    1.0000 </r>
       <r>   -5.9504    1.0000 </r>
       <r>    0.4669    1.0000 </r>
       <r>    0.5387    1.0000 </r>
       <r>    0.6199    1.0000 </r>
       <r>    0.7355    1.0000 </r>
       <r>    0.8359    1.0000 </r>
       <r>    0.9160    1.0000 </r>
       <r>    1.0759    1.0000 </r>
       <r>    1.2078    1.0000 </r>
       <r>    1.3094    1.0000 </r>
       <r>    1.4164    1.0000 </r>
       <r>    1.4852    1.0000 </r>
       <r>    1.5627    1.0000 </r>
       <r>    1.6233    1.0000 </r>
       <r>    1.6508    1.0000 </r>
       <r>    1.7471    1.0000 </r>
       <r>    1.8245    1.0000 </r>
       <r>    1.8972    1.0000 </r>
       <r>    1.9652    1.0000 </r>
       <r>    2.0987    1.0000 </r>
       <r>    2.1299    1.0000 </r>
       <r>    2.1775    1.0000 </r>
       <r>    2.2434    1.0000 </r>
       <r>    2.2903    1.0000 </r>
       <r>    2.3314    1.0000 </r>
       <r>    2.4334    1.0000 </r>
       <r>    2.4908    1.0000 </r>
       <r>    2.5395    1.0000 </r>
       <r>    2.5455    1.0000 </r>
       <r>    2.5962    1.0000 </r>
       <r>    2.7458    1.0000 </r>
       <r>    2.7745    1.0000 </r>
       <r>    2.7990    1.0000 </r>
       <r>    2.8591    1.0000 </r>
       <r>    2.9273    1.0000 </r>
       <r>    2.9717    1.0000 </r>
       <r>    3.0422    1.0000 </r>
       <r>    3.0902    1.0000 </r>
       <r>    3.1746    1.0000 </r>
       <r>    3.2973    1.0000 </r>
       <r>    3.3470    1.0000 </r>
       <r>    3.4327    1.0000 </r>
       <r>    3.5101    1.0000 </r>
       <r>    3.7502    1.0000 </r>
       <r>    4.0471    1.0000 </r>
       <r>    4.5859    1.0000 </r>
       <r>    5.0195    1.0000 </r>
       <r>    5.3391    1.0000 </r>
       <r>    5.5898    1.0000 </r>
       <r>    5.9393    1.0000 </r>
       <r>    6.2382    1.0000 </r>
       <r>    6.3764    1.0000 </r>
       <r>    6.6943    1.0000 </r>
       <r>    7.2495    0.0000 </r>
       <r>    8.4458    0.0000 </r>
       <r>    8.8759    0.0000 </r>
       <r>    9.7207    0.0000 </r>
       <r>   10.2296    0.0000 </r>
       <r>   11.2819    0.0000 </r>
       <r>   11.4473    0.0000 </r>
       <r>   11.7436    0.0000 </r>
       <r>   11.9777    0.0000 </r>
       <r>   12.2679    0.0000 </r>
       <r>   13.1333    0.0000 </r>
       <r>   13.3398    0.0000 </r>
      </set>
      <set comment="kpoint 50">
       <r>   -6.6225    1.0000 </r>
       <r>   -6.2684    1.0000 </r>
       <r>   -6.0288    1.0000 </r>
       <r>   -5.9508    1.0000 </r>
       <r>    0.4623    1.0000 </r>
       <r>    0.5316    1.0000 </r>
       <r>    0.6314    1.0000 </r>
       <r>    0.7417    1.0000 </r>
       <r>    0.8452    1.0000 </r>
       <r>    0.9010    1.0000 </r>
       <r>    1.0689    1.0000 </r>
       <r>    1.2066    1.0000 </r>
       <r>    1.3286    1.0000 </r>
       <r>    1.4376    1.0000 </r>
       <r>    1.4842    1.0000 </r>
       <r>    1.5658    1.0000 </r>
       <r>    1.6253    1.0000 </r>
       <r>    1.6512    1.0000 </r>
       <r>    1.7469    1.0000 </r>
       <r>    1.8307    1.0000 </r>
       <r>    1.8878    1.0000 </r>
       <r>    1.9592    1.0000 </r>
       <r>    2.0864    1.0000 </r>
       <r>    2.1261    1.0000 </r>
       <r>    2.1724    1.0000 </r>
       <r>    2.2307    1.0000 </r>
       <r>    2.2929    1.0000 </r>
       <r>    2.3276    1.0000 </r>
       <r>    2.4261    1.0000 </r>
       <r>    2.5014    1.0000 </r>
       <r>    2.5416    1.0000 </r>
       <r>    2.5584    1.0000 </r>
       <r>    2.6062    1.0000 </r>
       <r>    2.7309    1.0000 </r>
       <r>    2.7569    1.0000 </r>
       <r>    2.7978    1.0000 </r>
       <r>    2.8631    1.0000 </r>
       <r>    2.9197    1.0000 </r>
       <r>    2.9735    1.0000 </r>
       <r>    3.0405    1.0000 </r>
       <r>    3.0941    1.0000 </r>
       <r>    3.1939    1.0000 </r>
       <r>    3.2954    1.0000 </r>
       <r>    3.3437    1.0000 </r>
       <r>    3.4186    1.0000 </r>
       <r>    3.5289    1.0000 </r>
       <r>    3.7388    1.0000 </r>
       <r>    4.0898    1.0000 </r>
       <r>    4.5487    1.0000 </r>
       <r>    5.0442    1.0000 </r>
       <r>    5.3051    1.0000 </r>
       <r>    5.6004    1.0000 </r>
       <r>    5.8929    1.0000 </r>
       <r>    6.2313    1.0000 </r>
       <r>    6.3659    1.0000 </r>
       <r>    6.6819    1.0000 </r>
       <r>    7.3185    0.0000 </r>
       <r>    8.5425    0.0000 </r>
       <r>    8.8053    0.0000 </r>
       <r>    9.7478    0.0000 </r>
       <r>   10.2756    0.0000 </r>
       <r>   11.2939    0.0000 </r>
       <r>   11.4347    0.0000 </r>
       <r>   11.7288    0.0000 </r>
       <r>   11.9628    0.0000 </r>
       <r>   12.2341    0.0000 </r>
       <r>   13.0495    0.0000 </r>
       <r>   13.2383    0.0000 </r>
      </set>
      <set comment="kpoint 51">
       <r>   -6.6106    1.0000 </r>
       <r>   -6.2842    1.0000 </r>
       <r>   -6.0257    1.0000 </r>
       <r>   -5.9517    1.0000 </r>
       <r>    0.4573    1.0000 </r>
       <r>    0.5241    1.0000 </r>
       <r>    0.6441    1.0000 </r>
       <r>    0.7481    1.0000 </r>
       <r>    0.8556    1.0000 </r>
       <r>    0.8896    1.0000 </r>
       <r>    1.0602    1.0000 </r>
       <r>    1.2053    1.0000 </r>
       <r>    1.3454    1.0000 </r>
       <r>    1.4515    1.0000 </r>
       <r>    1.4880    1.0000 </r>
       <r>    1.5685    1.0000 </r>
       <r>    1.6277    1.0000 </r>
       <r>    1.6527    1.0000 </r>
       <r>    1.7461    1.0000 </r>
       <r>    1.8347    1.0000 </r>
       <r>    1.8835    1.0000 </r>
       <r>    1.9548    1.0000 </r>
       <r>    2.0724    1.0000 </r>
       <r>    2.1222    1.0000 </r>
       <r>    2.1680    1.0000 </r>
       <r>    2.2137    1.0000 </r>
       <r>    2.2941    1.0000 </r>
       <r>    2.3277    1.0000 </r>
       <r>    2.4205    1.0000 </r>
       <r>    2.5081    1.0000 </r>
       <r>    2.5416    1.0000 </r>
       <r>    2.5727    1.0000 </r>
       <r>    2.6191    1.0000 </r>
       <r>    2.7147    1.0000 </r>
       <r>    2.7388    1.0000 </r>
       <r>    2.7954    1.0000 </r>
       <r>    2.8698    1.0000 </r>
       <r>    2.9130    1.0000 </r>
       <r>    2.9771    1.0000 </r>
       <r>    3.0390    1.0000 </r>
       <r>    3.0978    1.0000 </r>
       <r>    3.2131    1.0000 </r>
       <r>    3.2932    1.0000 </r>
       <r>    3.3402    1.0000 </r>
       <r>    3.4061    1.0000 </r>
       <r>    3.5480    1.0000 </r>
       <r>    3.7273    1.0000 </r>
       <r>    4.1356    1.0000 </r>
       <r>    4.5059    1.0000 </r>
       <r>    5.0690    1.0000 </r>
       <r>    5.2662    1.0000 </r>
       <r>    5.5962    1.0000 </r>
       <r>    5.8697    1.0000 </r>
       <r>    6.2267    1.0000 </r>
       <r>    6.3556    1.0000 </r>
       <r>    6.6677    1.0000 </r>
       <r>    7.3874    0.0000 </r>
       <r>    8.6423    0.0000 </r>
       <r>    8.7328    0.0000 </r>
       <r>    9.7695    0.0000 </r>
       <r>   10.3264    0.0000 </r>
       <r>   11.2949    0.0000 </r>
       <r>   11.4279    0.0000 </r>
       <r>   11.7105    0.0000 </r>
       <r>   11.9533    0.0000 </r>
       <r>   12.2003    0.0000 </r>
       <r>   12.9046    0.0000 </r>
       <r>   13.1169    0.0000 </r>
      </set>
      <set comment="kpoint 52">
       <r>   -6.5976    1.0000 </r>
       <r>   -6.3009    1.0000 </r>
       <r>   -6.0224    1.0000 </r>
       <r>   -5.9529    1.0000 </r>
       <r>    0.4524    1.0000 </r>
       <r>    0.5163    1.0000 </r>
       <r>    0.6575    1.0000 </r>
       <r>    0.7538    1.0000 </r>
       <r>    0.8622    1.0000 </r>
       <r>    0.8870    1.0000 </r>
       <r>    1.0498    1.0000 </r>
       <r>    1.2039    1.0000 </r>
       <r>    1.3591    1.0000 </r>
       <r>    1.4552    1.0000 </r>
       <r>    1.4991    1.0000 </r>
       <r>    1.5708    1.0000 </r>
       <r>    1.6305    1.0000 </r>
       <r>    1.6555    1.0000 </r>
       <r>    1.7450    1.0000 </r>
       <r>    1.8368    1.0000 </r>
       <r>    1.8839    1.0000 </r>
       <r>    1.9518    1.0000 </r>
       <r>    2.0578    1.0000 </r>
       <r>    2.1179    1.0000 </r>
       <r>    2.1646    1.0000 </r>
       <r>    2.1945    1.0000 </r>
       <r>    2.2932    1.0000 </r>
       <r>    2.3301    1.0000 </r>
       <r>    2.4179    1.0000 </r>
       <r>    2.5102    1.0000 </r>
       <r>    2.5429    1.0000 </r>
       <r>    2.5850    1.0000 </r>
       <r>    2.6322    1.0000 </r>
       <r>    2.6976    1.0000 </r>
       <r>    2.7248    1.0000 </r>
       <r>    2.7924    1.0000 </r>
       <r>    2.8759    1.0000 </r>
       <r>    2.9077    1.0000 </r>
       <r>    2.9822    1.0000 </r>
       <r>    3.0378    1.0000 </r>
       <r>    3.1013    1.0000 </r>
       <r>    3.2294    1.0000 </r>
       <r>    3.2911    1.0000 </r>
       <r>    3.3363    1.0000 </r>
       <r>    3.3989    1.0000 </r>
       <r>    3.5670    1.0000 </r>
       <r>    3.7157    1.0000 </r>
       <r>    4.1814    1.0000 </r>
       <r>    4.4602    1.0000 </r>
       <r>    5.0932    1.0000 </r>
       <r>    5.2256    1.0000 </r>
       <r>    5.5699    1.0000 </r>
       <r>    5.8747    1.0000 </r>
       <r>    6.2238    1.0000 </r>
       <r>    6.3464    1.0000 </r>
       <r>    6.6517    1.0000 </r>
       <r>    7.4562    0.0000 </r>
       <r>    8.6579    0.0000 </r>
       <r>    8.7448    0.0000 </r>
       <r>    9.7847    0.0000 </r>
       <r>   10.3817    0.0000 </r>
       <r>   11.2836    0.0000 </r>
       <r>   11.4266    0.0000 </r>
       <r>   11.6878    0.0000 </r>
       <r>   11.9509    0.0000 </r>
       <r>   12.1686    0.0000 </r>
       <r>   12.7884    0.0000 </r>
       <r>   13.0144    0.0000 </r>
      </set>
      <set comment="kpoint 53">
       <r>   -6.5838    1.0000 </r>
       <r>   -6.3183    1.0000 </r>
       <r>   -6.0188    1.0000 </r>
       <r>   -5.9546    1.0000 </r>
       <r>    0.4477    1.0000 </r>
       <r>    0.5084    1.0000 </r>
       <r>    0.6712    1.0000 </r>
       <r>    0.7592    1.0000 </r>
       <r>    0.8591    1.0000 </r>
       <r>    0.8985    1.0000 </r>
       <r>    1.0381    1.0000 </r>
       <r>    1.2020    1.0000 </r>
       <r>    1.3689    1.0000 </r>
       <r>    1.4534    1.0000 </r>
       <r>    1.5127    1.0000 </r>
       <r>    1.5732    1.0000 </r>
       <r>    1.6334    1.0000 </r>
       <r>    1.6598    1.0000 </r>
       <r>    1.7436    1.0000 </r>
       <r>    1.8391    1.0000 </r>
       <r>    1.8867    1.0000 </r>
       <r>    1.9501    1.0000 </r>
       <r>    2.0433    1.0000 </r>
       <r>    2.1131    1.0000 </r>
       <r>    2.1610    1.0000 </r>
       <r>    2.1763    1.0000 </r>
       <r>    2.2902    1.0000 </r>
       <r>    2.3334    1.0000 </r>
       <r>    2.4188    1.0000 </r>
       <r>    2.5074    1.0000 </r>
       <r>    2.5469    1.0000 </r>
       <r>    2.5920    1.0000 </r>
       <r>    2.6422    1.0000 </r>
       <r>    2.6846    1.0000 </r>
       <r>    2.7155    1.0000 </r>
       <r>    2.7894    1.0000 </r>
       <r>    2.8797    1.0000 </r>
       <r>    2.9047    1.0000 </r>
       <r>    2.9881    1.0000 </r>
       <r>    3.0372    1.0000 </r>
       <r>    3.1046    1.0000 </r>
       <r>    3.2382    1.0000 </r>
       <r>    3.2903    1.0000 </r>
       <r>    3.3322    1.0000 </r>
       <r>    3.4011    1.0000 </r>
       <r>    3.5860    1.0000 </r>
       <r>    3.7044    1.0000 </r>
       <r>    4.2189    1.0000 </r>
       <r>    4.4201    1.0000 </r>
       <r>    5.1152    1.0000 </r>
       <r>    5.1848    1.0000 </r>
       <r>    5.5291    1.0000 </r>
       <r>    5.8990    1.0000 </r>
       <r>    6.2217    1.0000 </r>
       <r>    6.3394    1.0000 </r>
       <r>    6.6337    1.0000 </r>
       <r>    7.5253    0.0000 </r>
       <r>    8.5824    0.0000 </r>
       <r>    8.8474    0.0000 </r>
       <r>    9.7918    0.0000 </r>
       <r>   10.4414    0.0000 </r>
       <r>   11.2644    0.0000 </r>
       <r>   11.4239    0.0000 </r>
       <r>   11.6624    0.0000 </r>
       <r>   11.9554    0.0000 </r>
       <r>   12.1422    0.0000 </r>
       <r>   12.6804    0.0000 </r>
       <r>   12.9219    0.0000 </r>
      </set>
      <set comment="kpoint 54">
       <r>   -6.5691    1.0000 </r>
       <r>   -6.3361    1.0000 </r>
       <r>   -6.0150    1.0000 </r>
       <r>   -5.9566    1.0000 </r>
       <r>    0.4437    1.0000 </r>
       <r>    0.5007    1.0000 </r>
       <r>    0.6841    1.0000 </r>
       <r>    0.7650    1.0000 </r>
       <r>    0.8535    1.0000 </r>
       <r>    0.9158    1.0000 </r>
       <r>    1.0260    1.0000 </r>
       <r>    1.1993    1.0000 </r>
       <r>    1.3742    1.0000 </r>
       <r>    1.4505    1.0000 </r>
       <r>    1.5246    1.0000 </r>
       <r>    1.5762    1.0000 </r>
       <r>    1.6365    1.0000 </r>
       <r>    1.6649    1.0000 </r>
       <r>    1.7427    1.0000 </r>
       <r>    1.8427    1.0000 </r>
       <r>    1.8897    1.0000 </r>
       <r>    1.9492    1.0000 </r>
       <r>    2.0293    1.0000 </r>
       <r>    2.1073    1.0000 </r>
       <r>    2.1497    1.0000 </r>
       <r>    2.1688    1.0000 </r>
       <r>    2.2855    1.0000 </r>
       <r>    2.3372    1.0000 </r>
       <r>    2.4225    1.0000 </r>
       <r>    2.5007    1.0000 </r>
       <r>    2.5522    1.0000 </r>
       <r>    2.5922    1.0000 </r>
       <r>    2.6452    1.0000 </r>
       <r>    2.6816    1.0000 </r>
       <r>    2.7104    1.0000 </r>
       <r>    2.7869    1.0000 </r>
       <r>    2.8805    1.0000 </r>
       <r>    2.9049    1.0000 </r>
       <r>    2.9942    1.0000 </r>
       <r>    3.0377    1.0000 </r>
       <r>    3.1077    1.0000 </r>
       <r>    3.2366    1.0000 </r>
       <r>    3.2914    1.0000 </r>
       <r>    3.3280    1.0000 </r>
       <r>    3.4149    1.0000 </r>
       <r>    3.6050    1.0000 </r>
       <r>    3.6941    1.0000 </r>
       <r>    4.2263    1.0000 </r>
       <r>    4.4079    1.0000 </r>
       <r>    5.1208    1.0000 </r>
       <r>    5.1565    1.0000 </r>
       <r>    5.4847    1.0000 </r>
       <r>    5.9313    1.0000 </r>
       <r>    6.2198    1.0000 </r>
       <r>    6.3361    1.0000 </r>
       <r>    6.6138    1.0000 </r>
       <r>    7.5946    0.0000 </r>
       <r>    8.5057    0.0000 </r>
       <r>    8.9497    0.0000 </r>
       <r>    9.7896    0.0000 </r>
       <r>   10.5050    0.0000 </r>
       <r>   11.2423    0.0000 </r>
       <r>   11.4118    0.0000 </r>
       <r>   11.6380    0.0000 </r>
       <r>   11.9638    0.0000 </r>
       <r>   12.1259    0.0000 </r>
       <r>   12.5822    0.0000 </r>
       <r>   12.8320    0.0000 </r>
      </set>
      <set comment="kpoint 55">
       <r>   -6.5539    1.0000 </r>
       <r>   -6.3542    1.0000 </r>
       <r>   -6.0112    1.0000 </r>
       <r>   -5.9589    1.0000 </r>
       <r>    0.4404    1.0000 </r>
       <r>    0.4933    1.0000 </r>
       <r>    0.6951    1.0000 </r>
       <r>    0.7724    1.0000 </r>
       <r>    0.8485    1.0000 </r>
       <r>    0.9326    1.0000 </r>
       <r>    1.0155    1.0000 </r>
       <r>    1.1953    1.0000 </r>
       <r>    1.3750    1.0000 </r>
       <r>    1.4482    1.0000 </r>
       <r>    1.5336    1.0000 </r>
       <r>    1.5802    1.0000 </r>
       <r>    1.6395    1.0000 </r>
       <r>    1.6703    1.0000 </r>
       <r>    1.7427    1.0000 </r>
       <r>    1.8481    1.0000 </r>
       <r>    1.8918    1.0000 </r>
       <r>    1.9488    1.0000 </r>
       <r>    2.0164    1.0000 </r>
       <r>    2.0986    1.0000 </r>
       <r>    2.1349    1.0000 </r>
       <r>    2.1706    1.0000 </r>
       <r>    2.2797    1.0000 </r>
       <r>    2.3418    1.0000 </r>
       <r>    2.4278    1.0000 </r>
       <r>    2.4913    1.0000 </r>
       <r>    2.5550    1.0000 </r>
       <r>    2.5897    1.0000 </r>
       <r>    2.6430    1.0000 </r>
       <r>    2.6846    1.0000 </r>
       <r>    2.7101    1.0000 </r>
       <r>    2.7851    1.0000 </r>
       <r>    2.8793    1.0000 </r>
       <r>    2.9075    1.0000 </r>
       <r>    2.9995    1.0000 </r>
       <r>    3.0396    1.0000 </r>
       <r>    3.1108    1.0000 </r>
       <r>    3.2271    1.0000 </r>
       <r>    3.2932    1.0000 </r>
       <r>    3.3239    1.0000 </r>
       <r>    3.4388    1.0000 </r>
       <r>    3.6231    1.0000 </r>
       <r>    3.6870    1.0000 </r>
       <r>    4.1905    1.0000 </r>
       <r>    4.4377    1.0000 </r>
       <r>    5.0806    1.0000 </r>
       <r>    5.1683    1.0000 </r>
       <r>    5.4436    1.0000 </r>
       <r>    5.9644    1.0000 </r>
       <r>    6.2171    1.0000 </r>
       <r>    6.3381    1.0000 </r>
       <r>    6.5920    1.0000 </r>
       <r>    7.6645    0.0000 </r>
       <r>    8.4285    0.0000 </r>
       <r>    9.0503    0.0000 </r>
       <r>    9.7772    0.0000 </r>
       <r>   10.5719    0.0000 </r>
       <r>   11.2202    0.0000 </r>
       <r>   11.3857    0.0000 </r>
       <r>   11.6175    0.0000 </r>
       <r>   11.9724    0.0000 </r>
       <r>   12.1247    0.0000 </r>
       <r>   12.4960    0.0000 </r>
       <r>   12.7449    0.0000 </r>
      </set>
      <set comment="kpoint 56">
       <r>   -6.5382    1.0000 </r>
       <r>   -6.3723    1.0000 </r>
       <r>   -6.0074    1.0000 </r>
       <r>   -5.9613    1.0000 </r>
       <r>    0.4380    1.0000 </r>
       <r>    0.4865    1.0000 </r>
       <r>    0.7033    1.0000 </r>
       <r>    0.7825    1.0000 </r>
       <r>    0.8445    1.0000 </r>
       <r>    0.9432    1.0000 </r>
       <r>    1.0114    1.0000 </r>
       <r>    1.1895    1.0000 </r>
       <r>    1.3723    1.0000 </r>
       <r>    1.4468    1.0000 </r>
       <r>    1.5399    1.0000 </r>
       <r>    1.5850    1.0000 </r>
       <r>    1.6423    1.0000 </r>
       <r>    1.6755    1.0000 </r>
       <r>    1.7438    1.0000 </r>
       <r>    1.8547    1.0000 </r>
       <r>    1.8928    1.0000 </r>
       <r>    1.9482    1.0000 </r>
       <r>    2.0050    1.0000 </r>
       <r>    2.0861    1.0000 </r>
       <r>    2.1246    1.0000 </r>
       <r>    2.1756    1.0000 </r>
       <r>    2.2734    1.0000 </r>
       <r>    2.3474    1.0000 </r>
       <r>    2.4330    1.0000 </r>
       <r>    2.4803    1.0000 </r>
       <r>    2.5512    1.0000 </r>
       <r>    2.5921    1.0000 </r>
       <r>    2.6395    1.0000 </r>
       <r>    2.6858    1.0000 </r>
       <r>    2.7140    1.0000 </r>
       <r>    2.7839    1.0000 </r>
       <r>    2.8777    1.0000 </r>
       <r>    2.9111    1.0000 </r>
       <r>    3.0034    1.0000 </r>
       <r>    3.0428    1.0000 </r>
       <r>    3.1140    1.0000 </r>
       <r>    3.2137    1.0000 </r>
       <r>    3.2948    1.0000 </r>
       <r>    3.3201    1.0000 </r>
       <r>    3.4684    1.0000 </r>
       <r>    3.6344    1.0000 </r>
       <r>    3.6901    1.0000 </r>
       <r>    4.1316    1.0000 </r>
       <r>    4.4905    1.0000 </r>
       <r>    5.0271    1.0000 </r>
       <r>    5.1865    1.0000 </r>
       <r>    5.4088    1.0000 </r>
       <r>    5.9945    1.0000 </r>
       <r>    6.2132    1.0000 </r>
       <r>    6.3464    1.0000 </r>
       <r>    6.5687    1.0000 </r>
       <r>    7.7350    0.0000 </r>
       <r>    8.3512    0.0000 </r>
       <r>    9.1477    0.0000 </r>
       <r>    9.7540    0.0000 </r>
       <r>   10.6412    0.0000 </r>
       <r>   11.1980    0.0000 </r>
       <r>   11.3480    0.0000 </r>
       <r>   11.6007    0.0000 </r>
       <r>   11.9799    0.0000 </r>
       <r>   12.1403    0.0000 </r>
       <r>   12.4226    0.0000 </r>
       <r>   12.6609    0.0000 </r>
      </set>
      <set comment="kpoint 57">
       <r>   -6.5227    1.0000 </r>
       <r>   -6.3898    1.0000 </r>
       <r>   -6.0040    1.0000 </r>
       <r>   -5.9638    1.0000 </r>
       <r>    0.4364    1.0000 </r>
       <r>    0.4806    1.0000 </r>
       <r>    0.7085    1.0000 </r>
       <r>    0.7950    1.0000 </r>
       <r>    0.8415    1.0000 </r>
       <r>    0.9422    1.0000 </r>
       <r>    1.0182    1.0000 </r>
       <r>    1.1819    1.0000 </r>
       <r>    1.3681    1.0000 </r>
       <r>    1.4459    1.0000 </r>
       <r>    1.5442    1.0000 </r>
       <r>    1.5897    1.0000 </r>
       <r>    1.6447    1.0000 </r>
       <r>    1.6799    1.0000 </r>
       <r>    1.7456    1.0000 </r>
       <r>    1.8619    1.0000 </r>
       <r>    1.8931    1.0000 </r>
       <r>    1.9470    1.0000 </r>
       <r>    1.9959    1.0000 </r>
       <r>    2.0718    1.0000 </r>
       <r>    2.1188    1.0000 </r>
       <r>    2.1820    1.0000 </r>
       <r>    2.2675    1.0000 </r>
       <r>    2.3541    1.0000 </r>
       <r>    2.4356    1.0000 </r>
       <r>    2.4700    1.0000 </r>
       <r>    2.5434    1.0000 </r>
       <r>    2.5993    1.0000 </r>
       <r>    2.6361    1.0000 </r>
       <r>    2.6840    1.0000 </r>
       <r>    2.7194    1.0000 </r>
       <r>    2.7835    1.0000 </r>
       <r>    2.8764    1.0000 </r>
       <r>    2.9147    1.0000 </r>
       <r>    3.0060    1.0000 </r>
       <r>    3.0467    1.0000 </r>
       <r>    3.1176    1.0000 </r>
       <r>    3.1995    1.0000 </r>
       <r>    3.2964    1.0000 </r>
       <r>    3.3166    1.0000 </r>
       <r>    3.4994    1.0000 </r>
       <r>    3.6325    1.0000 </r>
       <r>    3.7118    1.0000 </r>
       <r>    4.0650    1.0000 </r>
       <r>    4.5521    1.0000 </r>
       <r>    4.9680    1.0000 </r>
       <r>    5.2032    1.0000 </r>
       <r>    5.3814    1.0000 </r>
       <r>    6.0192    1.0000 </r>
       <r>    6.2084    1.0000 </r>
       <r>    6.3607    1.0000 </r>
       <r>    6.5442    1.0000 </r>
       <r>    7.8059    0.0000 </r>
       <r>    8.2744    0.0000 </r>
       <r>    9.2401    0.0000 </r>
       <r>    9.7207    0.0000 </r>
       <r>   10.7109    0.0000 </r>
       <r>   11.1729    0.0000 </r>
       <r>   11.3072    0.0000 </r>
       <r>   11.5859    0.0000 </r>
       <r>   11.9881    0.0000 </r>
       <r>   12.1688    0.0000 </r>
       <r>   12.3643    0.0000 </r>
       <r>   12.5807    0.0000 </r>
      </set>
      <set comment="kpoint 58">
       <r>   -6.5080    1.0000 </r>
       <r>   -6.4059    1.0000 </r>
       <r>   -6.0010    1.0000 </r>
       <r>   -5.9659    1.0000 </r>
       <r>    0.4355    1.0000 </r>
       <r>    0.4760    1.0000 </r>
       <r>    0.7113    1.0000 </r>
       <r>    0.8082    1.0000 </r>
       <r>    0.8392    1.0000 </r>
       <r>    0.9336    1.0000 </r>
       <r>    1.0314    1.0000 </r>
       <r>    1.1733    1.0000 </r>
       <r>    1.3638    1.0000 </r>
       <r>    1.4454    1.0000 </r>
       <r>    1.5470    1.0000 </r>
       <r>    1.5935    1.0000 </r>
       <r>    1.6466    1.0000 </r>
       <r>    1.6831    1.0000 </r>
       <r>    1.7478    1.0000 </r>
       <r>    1.8684    1.0000 </r>
       <r>    1.8931    1.0000 </r>
       <r>    1.9451    1.0000 </r>
       <r>    1.9894    1.0000 </r>
       <r>    2.0591    1.0000 </r>
       <r>    2.1155    1.0000 </r>
       <r>    2.1883    1.0000 </r>
       <r>    2.2625    1.0000 </r>
       <r>    2.3616    1.0000 </r>
       <r>    2.4323    1.0000 </r>
       <r>    2.4647    1.0000 </r>
       <r>    2.5362    1.0000 </r>
       <r>    2.6071    1.0000 </r>
       <r>    2.6337    1.0000 </r>
       <r>    2.6804    1.0000 </r>
       <r>    2.7240    1.0000 </r>
       <r>    2.7835    1.0000 </r>
       <r>    2.8757    1.0000 </r>
       <r>    2.9178    1.0000 </r>
       <r>    3.0076    1.0000 </r>
       <r>    3.0504    1.0000 </r>
       <r>    3.1214    1.0000 </r>
       <r>    3.1866    1.0000 </r>
       <r>    3.2978    1.0000 </r>
       <r>    3.3136    1.0000 </r>
       <r>    3.5278    1.0000 </r>
       <r>    3.6228    1.0000 </r>
       <r>    3.7479    1.0000 </r>
       <r>    3.9975    1.0000 </r>
       <r>    4.6168    1.0000 </r>
       <r>    4.9054    1.0000 </r>
       <r>    5.2169    1.0000 </r>
       <r>    5.3614    1.0000 </r>
       <r>    6.0373    1.0000 </r>
       <r>    6.2036    1.0000 </r>
       <r>    6.3791    1.0000 </r>
       <r>    6.5199    1.0000 </r>
       <r>    7.8766    0.0000 </r>
       <r>    8.1993    0.0000 </r>
       <r>    9.3239    0.0000 </r>
       <r>    9.6795    0.0000 </r>
       <r>   10.7777    0.0000 </r>
       <r>   11.1402    0.0000 </r>
       <r>   11.2747    0.0000 </r>
       <r>   11.5732    0.0000 </r>
       <r>   11.9979    0.0000 </r>
       <r>   12.2008    0.0000 </r>
       <r>   12.3271    0.0000 </r>
       <r>   12.5056    0.0000 </r>
      </set>
      <set comment="kpoint 59">
       <r>   -6.4961    1.0000 </r>
       <r>   -6.4186    1.0000 </r>
       <r>   -5.9990    1.0000 </r>
       <r>   -5.9675    1.0000 </r>
       <r>    0.4351    1.0000 </r>
       <r>    0.4730    1.0000 </r>
       <r>    0.7127    1.0000 </r>
       <r>    0.8195    1.0000 </r>
       <r>    0.8372    1.0000 </r>
       <r>    0.9246    1.0000 </r>
       <r>    1.0433    1.0000 </r>
       <r>    1.1658    1.0000 </r>
       <r>    1.3609    1.0000 </r>
       <r>    1.4451    1.0000 </r>
       <r>    1.5486    1.0000 </r>
       <r>    1.5960    1.0000 </r>
       <r>    1.6479    1.0000 </r>
       <r>    1.6851    1.0000 </r>
       <r>    1.7495    1.0000 </r>
       <r>    1.8729    1.0000 </r>
       <r>    1.8935    1.0000 </r>
       <r>    1.9431    1.0000 </r>
       <r>    1.9856    1.0000 </r>
       <r>    2.0505    1.0000 </r>
       <r>    2.1138    1.0000 </r>
       <r>    2.1930    1.0000 </r>
       <r>    2.2591    1.0000 </r>
       <r>    2.3684    1.0000 </r>
       <r>    2.4250    1.0000 </r>
       <r>    2.4641    1.0000 </r>
       <r>    2.5313    1.0000 </r>
       <r>    2.6126    1.0000 </r>
       <r>    2.6329    1.0000 </r>
       <r>    2.6768    1.0000 </r>
       <r>    2.7269    1.0000 </r>
       <r>    2.7836    1.0000 </r>
       <r>    2.8755    1.0000 </r>
       <r>    2.9198    1.0000 </r>
       <r>    3.0084    1.0000 </r>
       <r>    3.0530    1.0000 </r>
       <r>    3.1250    1.0000 </r>
       <r>    3.1770    1.0000 </r>
       <r>    3.2991    1.0000 </r>
       <r>    3.3113    1.0000 </r>
       <r>    3.5503    1.0000 </r>
       <r>    3.6111    1.0000 </r>
       <r>    3.7918    1.0000 </r>
       <r>    3.9345    1.0000 </r>
       <r>    4.6800    1.0000 </r>
       <r>    4.8436    1.0000 </r>
       <r>    5.2263    1.0000 </r>
       <r>    5.3488    1.0000 </r>
       <r>    6.0485    1.0000 </r>
       <r>    6.2000    1.0000 </r>
       <r>    6.3972    1.0000 </r>
       <r>    6.4989    1.0000 </r>
       <r>    7.9435    0.0000 </r>
       <r>    8.1295    0.0000 </r>
       <r>    9.3913    0.0000 </r>
       <r>    9.6379    0.0000 </r>
       <r>   10.8330    0.0000 </r>
       <r>   11.1034    0.0000 </r>
       <r>   11.2568    0.0000 </r>
       <r>   11.5641    0.0000 </r>
       <r>   12.0070    0.0000 </r>
       <r>   12.2192    0.0000 </r>
       <r>   12.3257    0.0000 </r>
       <r>   12.4384    0.0000 </r>
      </set>
      <set comment="kpoint 60">
       <r>   -6.4911    1.0000 </r>
       <r>   -6.4238    1.0000 </r>
       <r>   -5.9983    1.0000 </r>
       <r>   -5.9681    1.0000 </r>
       <r>    0.4350    1.0000 </r>
       <r>    0.4719    1.0000 </r>
       <r>    0.7131    1.0000 </r>
       <r>    0.8246    1.0000 </r>
       <r>    0.8360    1.0000 </r>
       <r>    0.9208    1.0000 </r>
       <r>    1.0481    1.0000 </r>
       <r>    1.1627    1.0000 </r>
       <r>    1.3598    1.0000 </r>
       <r>    1.4450    1.0000 </r>
       <r>    1.5491    1.0000 </r>
       <r>    1.5968    1.0000 </r>
       <r>    1.6483    1.0000 </r>
       <r>    1.6858    1.0000 </r>
       <r>    1.7501    1.0000 </r>
       <r>    1.8744    1.0000 </r>
       <r>    1.8939    1.0000 </r>
       <r>    1.9421    1.0000 </r>
       <r>    1.9844    1.0000 </r>
       <r>    2.0474    1.0000 </r>
       <r>    2.1133    1.0000 </r>
       <r>    2.1948    1.0000 </r>
       <r>    2.2579    1.0000 </r>
       <r>    2.3716    1.0000 </r>
       <r>    2.4212    1.0000 </r>
       <r>    2.4645    1.0000 </r>
       <r>    2.5296    1.0000 </r>
       <r>    2.6144    1.0000 </r>
       <r>    2.6331    1.0000 </r>
       <r>    2.6751    1.0000 </r>
       <r>    2.7278    1.0000 </r>
       <r>    2.7837    1.0000 </r>
       <r>    2.8754    1.0000 </r>
       <r>    2.9205    1.0000 </r>
       <r>    3.0087    1.0000 </r>
       <r>    3.0539    1.0000 </r>
       <r>    3.1266    1.0000 </r>
       <r>    3.1732    1.0000 </r>
       <r>    3.2996    1.0000 </r>
       <r>    3.3104    1.0000 </r>
       <r>    3.5604    1.0000 </r>
       <r>    3.6047    1.0000 </r>
       <r>    3.8224    1.0000 </r>
       <r>    3.8975    1.0000 </r>
       <r>    4.7187    1.0000 </r>
       <r>    4.8052    1.0000 </r>
       <r>    5.2297    1.0000 </r>
       <r>    5.3444    1.0000 </r>
       <r>    6.0522    1.0000 </r>
       <r>    6.1987    1.0000 </r>
       <r>    6.4059    1.0000 </r>
       <r>    6.4895    1.0000 </r>
       <r>    7.9828    0.0000 </r>
       <r>    8.0893    0.0000 </r>
       <r>    9.4210    0.0000 </r>
       <r>    9.6168    0.0000 </r>
       <r>   10.8570    0.0000 </r>
       <r>   11.0849    0.0000 </r>
       <r>   11.2514    0.0000 </r>
       <r>   11.5609    0.0000 </r>
       <r>   12.0109    0.0000 </r>
       <r>   12.2211    0.0000 </r>
       <r>   12.3477    0.0000 </r>
       <r>   12.3971    0.0000 </r>
      </set>
      <set comment="kpoint 61">
       <r>   -6.1644    1.0000 </r>
       <r>   -6.0448    1.0000 </r>
       <r>   -6.0349    1.0000 </r>
       <r>   -5.9939    1.0000 </r>
       <r>    0.5360    1.0000 </r>
       <r>    0.5830    1.0000 </r>
       <r>    0.6336    1.0000 </r>
       <r>    0.6852    1.0000 </r>
       <r>    1.0910    1.0000 </r>
       <r>    1.1173    1.0000 </r>
       <r>    1.1557    1.0000 </r>
       <r>    1.2040    1.0000 </r>
       <r>    1.4275    1.0000 </r>
       <r>    1.4735    1.0000 </r>
       <r>    1.5047    1.0000 </r>
       <r>    1.5797    1.0000 </r>
       <r>    1.7373    1.0000 </r>
       <r>    1.7934    1.0000 </r>
       <r>    1.8090    1.0000 </r>
       <r>    1.8706    1.0000 </r>
       <r>    1.9249    1.0000 </r>
       <r>    1.9887    1.0000 </r>
       <r>    2.0480    1.0000 </r>
       <r>    2.1214    1.0000 </r>
       <r>    2.1534    1.0000 </r>
       <r>    2.1943    1.0000 </r>
       <r>    2.3518    1.0000 </r>
       <r>    2.4101    1.0000 </r>
       <r>    2.4358    1.0000 </r>
       <r>    2.4451    1.0000 </r>
       <r>    2.5099    1.0000 </r>
       <r>    2.5334    1.0000 </r>
       <r>    2.6247    1.0000 </r>
       <r>    2.6870    1.0000 </r>
       <r>    2.7088    1.0000 </r>
       <r>    2.7186    1.0000 </r>
       <r>    2.8290    1.0000 </r>
       <r>    2.8508    1.0000 </r>
       <r>    2.8859    1.0000 </r>
       <r>    2.9111    1.0000 </r>
       <r>    2.9787    1.0000 </r>
       <r>    3.0469    1.0000 </r>
       <r>    3.0683    1.0000 </r>
       <r>    3.1281    1.0000 </r>
       <r>    3.3857    1.0000 </r>
       <r>    3.4433    1.0000 </r>
       <r>    3.6485    1.0000 </r>
       <r>    3.6906    1.0000 </r>
       <r>    4.1875    1.0000 </r>
       <r>    4.3188    1.0000 </r>
       <r>    5.0467    1.0000 </r>
       <r>    5.2946    1.0000 </r>
       <r>    5.6927    1.0000 </r>
       <r>    5.7969    1.0000 </r>
       <r>    5.8886    1.0000 </r>
       <r>    6.0810    1.0000 </r>
       <r>    9.2579    0.0000 </r>
       <r>    9.3708    0.0000 </r>
       <r>    9.4711    0.0000 </r>
       <r>    9.5413    0.0000 </r>
       <r>   10.4168    0.0000 </r>
       <r>   10.6409    0.0000 </r>
       <r>   10.7274    0.0000 </r>
       <r>   10.9834    0.0000 </r>
       <r>   11.5305    0.0000 </r>
       <r>   11.6727    0.0000 </r>
       <r>   11.9387    0.0000 </r>
       <r>   12.0597    0.0000 </r>
      </set>
      <set comment="kpoint 62">
       <r>   -6.1670    1.0000 </r>
       <r>   -6.0490    1.0000 </r>
       <r>   -6.0346    1.0000 </r>
       <r>   -5.9922    1.0000 </r>
       <r>    0.5127    1.0000 </r>
       <r>    0.5894    1.0000 </r>
       <r>    0.6435    1.0000 </r>
       <r>    0.6990    1.0000 </r>
       <r>    1.0845    1.0000 </r>
       <r>    1.1069    1.0000 </r>
       <r>    1.1673    1.0000 </r>
       <r>    1.2025    1.0000 </r>
       <r>    1.4255    1.0000 </r>
       <r>    1.4717    1.0000 </r>
       <r>    1.5030    1.0000 </r>
       <r>    1.5875    1.0000 </r>
       <r>    1.7379    1.0000 </r>
       <r>    1.7859    1.0000 </r>
       <r>    1.8147    1.0000 </r>
       <r>    1.8690    1.0000 </r>
       <r>    1.9258    1.0000 </r>
       <r>    1.9846    1.0000 </r>
       <r>    2.0417    1.0000 </r>
       <r>    2.1266    1.0000 </r>
       <r>    2.1507    1.0000 </r>
       <r>    2.1918    1.0000 </r>
       <r>    2.3509    1.0000 </r>
       <r>    2.4105    1.0000 </r>
       <r>    2.4361    1.0000 </r>
       <r>    2.4508    1.0000 </r>
       <r>    2.5114    1.0000 </r>
       <r>    2.5319    1.0000 </r>
       <r>    2.6227    1.0000 </r>
       <r>    2.6885    1.0000 </r>
       <r>    2.7106    1.0000 </r>
       <r>    2.7174    1.0000 </r>
       <r>    2.8260    1.0000 </r>
       <r>    2.8431    1.0000 </r>
       <r>    2.8707    1.0000 </r>
       <r>    2.9257    1.0000 </r>
       <r>    2.9877    1.0000 </r>
       <r>    3.0335    1.0000 </r>
       <r>    3.0802    1.0000 </r>
       <r>    3.1329    1.0000 </r>
       <r>    3.3851    1.0000 </r>
       <r>    3.4448    1.0000 </r>
       <r>    3.6604    1.0000 </r>
       <r>    3.6930    1.0000 </r>
       <r>    4.1770    1.0000 </r>
       <r>    4.3286    1.0000 </r>
       <r>    5.0693    1.0000 </r>
       <r>    5.2880    1.0000 </r>
       <r>    5.6196    1.0000 </r>
       <r>    5.8289    1.0000 </r>
       <r>    5.9211    1.0000 </r>
       <r>    6.0839    1.0000 </r>
       <r>    9.2478    0.0000 </r>
       <r>    9.3815    0.0000 </r>
       <r>    9.4445    0.0000 </r>
       <r>    9.5789    0.0000 </r>
       <r>   10.3618    0.0000 </r>
       <r>   10.6831    0.0000 </r>
       <r>   10.7427    0.0000 </r>
       <r>   10.9831    0.0000 </r>
       <r>   11.4090    0.0000 </r>
       <r>   11.6985    0.0000 </r>
       <r>   11.9631    0.0000 </r>
       <r>   12.1303    0.0000 </r>
      </set>
      <set comment="kpoint 63">
       <r>   -6.1751    1.0000 </r>
       <r>   -6.0596    1.0000 </r>
       <r>   -6.0335    1.0000 </r>
       <r>   -5.9885    1.0000 </r>
       <r>    0.4773    1.0000 </r>
       <r>    0.5825    1.0000 </r>
       <r>    0.6760    1.0000 </r>
       <r>    0.7276    1.0000 </r>
       <r>    1.0645    1.0000 </r>
       <r>    1.0932    1.0000 </r>
       <r>    1.1874    1.0000 </r>
       <r>    1.1984    1.0000 </r>
       <r>    1.4160    1.0000 </r>
       <r>    1.4676    1.0000 </r>
       <r>    1.5043    1.0000 </r>
       <r>    1.6050    1.0000 </r>
       <r>    1.7376    1.0000 </r>
       <r>    1.7739    1.0000 </r>
       <r>    1.8215    1.0000 </r>
       <r>    1.8644    1.0000 </r>
       <r>    1.9289    1.0000 </r>
       <r>    1.9744    1.0000 </r>
       <r>    2.0252    1.0000 </r>
       <r>    2.1316    1.0000 </r>
       <r>    2.1485    1.0000 </r>
       <r>    2.1895    1.0000 </r>
       <r>    2.3461    1.0000 </r>
       <r>    2.4121    1.0000 </r>
       <r>    2.4361    1.0000 </r>
       <r>    2.4657    1.0000 </r>
       <r>    2.5111    1.0000 </r>
       <r>    2.5317    1.0000 </r>
       <r>    2.6232    1.0000 </r>
       <r>    2.6794    1.0000 </r>
       <r>    2.7083    1.0000 </r>
       <r>    2.7322    1.0000 </r>
       <r>    2.8129    1.0000 </r>
       <r>    2.8290    1.0000 </r>
       <r>    2.8528    1.0000 </r>
       <r>    2.9459    1.0000 </r>
       <r>    3.0064    1.0000 </r>
       <r>    3.0163    1.0000 </r>
       <r>    3.0975    1.0000 </r>
       <r>    3.1445    1.0000 </r>
       <r>    3.3812    1.0000 </r>
       <r>    3.4497    1.0000 </r>
       <r>    3.6862    1.0000 </r>
       <r>    3.7075    1.0000 </r>
       <r>    4.1509    1.0000 </r>
       <r>    4.3577    1.0000 </r>
       <r>    5.1299    1.0000 </r>
       <r>    5.2572    1.0000 </r>
       <r>    5.5344    1.0000 </r>
       <r>    5.8150    1.0000 </r>
       <r>    5.9961    1.0000 </r>
       <r>    6.1035    1.0000 </r>
       <r>    9.2246    0.0000 </r>
       <r>    9.3795    0.0000 </r>
       <r>    9.4425    0.0000 </r>
       <r>    9.6404    0.0000 </r>
       <r>   10.2670    0.0000 </r>
       <r>   10.6838    0.0000 </r>
       <r>   10.8193    0.0000 </r>
       <r>   10.9740    0.0000 </r>
       <r>   11.2570    0.0000 </r>
       <r>   11.6690    0.0000 </r>
       <r>   12.0427    0.0000 </r>
       <r>   12.2631    0.0000 </r>
      </set>
      <set comment="kpoint 64">
       <r>   -6.1894    1.0000 </r>
       <r>   -6.0732    1.0000 </r>
       <r>   -6.0322    1.0000 </r>
       <r>   -5.9848    1.0000 </r>
       <r>    0.4476    1.0000 </r>
       <r>    0.5729    1.0000 </r>
       <r>    0.7097    1.0000 </r>
       <r>    0.7590    1.0000 </r>
       <r>    1.0349    1.0000 </r>
       <r>    1.0856    1.0000 </r>
       <r>    1.1861    1.0000 </r>
       <r>    1.2140    1.0000 </r>
       <r>    1.4009    1.0000 </r>
       <r>    1.4551    1.0000 </r>
       <r>    1.5182    1.0000 </r>
       <r>    1.6219    1.0000 </r>
       <r>    1.7327    1.0000 </r>
       <r>    1.7608    1.0000 </r>
       <r>    1.8257    1.0000 </r>
       <r>    1.8587    1.0000 </r>
       <r>    1.9329    1.0000 </r>
       <r>    1.9617    1.0000 </r>
       <r>    2.0033    1.0000 </r>
       <r>    2.1236    1.0000 </r>
       <r>    2.1504    1.0000 </r>
       <r>    2.2007    1.0000 </r>
       <r>    2.3364    1.0000 </r>
       <r>    2.4136    1.0000 </r>
       <r>    2.4357    1.0000 </r>
       <r>    2.4803    1.0000 </r>
       <r>    2.5049    1.0000 </r>
       <r>    2.5403    1.0000 </r>
       <r>    2.6309    1.0000 </r>
       <r>    2.6578    1.0000 </r>
       <r>    2.7105    1.0000 </r>
       <r>    2.7502    1.0000 </r>
       <r>    2.7969    1.0000 </r>
       <r>    2.8185    1.0000 </r>
       <r>    2.8454    1.0000 </r>
       <r>    2.9622    1.0000 </r>
       <r>    2.9996    1.0000 </r>
       <r>    3.0272    1.0000 </r>
       <r>    3.1129    1.0000 </r>
       <r>    3.1631    1.0000 </r>
       <r>    3.3770    1.0000 </r>
       <r>    3.4514    1.0000 </r>
       <r>    3.7083    1.0000 </r>
       <r>    3.7464    1.0000 </r>
       <r>    4.1214    1.0000 </r>
       <r>    4.4051    1.0000 </r>
       <r>    5.1760    1.0000 </r>
       <r>    5.2213    1.0000 </r>
       <r>    5.5012    1.0000 </r>
       <r>    5.7785    1.0000 </r>
       <r>    6.0193    1.0000 </r>
       <r>    6.1689    1.0000 </r>
       <r>    9.1904    0.0000 </r>
       <r>    9.3655    0.0000 </r>
       <r>    9.4822    0.0000 </r>
       <r>    9.7045    0.0000 </r>
       <r>   10.1721    0.0000 </r>
       <r>   10.6425    0.0000 </r>
       <r>   10.7822    0.0000 </r>
       <r>   11.0031    0.0000 </r>
       <r>   11.2429    0.0000 </r>
       <r>   11.6295    0.0000 </r>
       <r>   12.0953    0.0000 </r>
       <r>   12.4220    0.0000 </r>
      </set>
      <set comment="kpoint 65">
       <r>   -6.2104    1.0000 </r>
       <r>   -6.0868    1.0000 </r>
       <r>   -6.0317    1.0000 </r>
       <r>   -5.9814    1.0000 </r>
       <r>    0.4276    1.0000 </r>
       <r>    0.5670    1.0000 </r>
       <r>    0.7285    1.0000 </r>
       <r>    0.7936    1.0000 </r>
       <r>    1.0024    1.0000 </r>
       <r>    1.0800    1.0000 </r>
       <r>    1.1771    1.0000 </r>
       <r>    1.2374    1.0000 </r>
       <r>    1.3848    1.0000 </r>
       <r>    1.4392    1.0000 </r>
       <r>    1.5369    1.0000 </r>
       <r>    1.6291    1.0000 </r>
       <r>    1.7239    1.0000 </r>
       <r>    1.7445    1.0000 </r>
       <r>    1.8282    1.0000 </r>
       <r>    1.8548    1.0000 </r>
       <r>    1.9290    1.0000 </r>
       <r>    1.9543    1.0000 </r>
       <r>    1.9825    1.0000 </r>
       <r>    2.1144    1.0000 </r>
       <r>    2.1478    1.0000 </r>
       <r>    2.2266    1.0000 </r>
       <r>    2.3249    1.0000 </r>
       <r>    2.4107    1.0000 </r>
       <r>    2.4316    1.0000 </r>
       <r>    2.4855    1.0000 </r>
       <r>    2.5051    1.0000 </r>
       <r>    2.5513    1.0000 </r>
       <r>    2.6338    1.0000 </r>
       <r>    2.6438    1.0000 </r>
       <r>    2.7190    1.0000 </r>
       <r>    2.7533    1.0000 </r>
       <r>    2.7824    1.0000 </r>
       <r>    2.8361    1.0000 </r>
       <r>    2.8436    1.0000 </r>
       <r>    2.9722    1.0000 </r>
       <r>    2.9866    1.0000 </r>
       <r>    3.0414    1.0000 </r>
       <r>    3.1265    1.0000 </r>
       <r>    3.1878    1.0000 </r>
       <r>    3.3783    1.0000 </r>
       <r>    3.4449    1.0000 </r>
       <r>    3.7335    1.0000 </r>
       <r>    3.7929    1.0000 </r>
       <r>    4.1010    1.0000 </r>
       <r>    4.4688    1.0000 </r>
       <r>    5.0773    1.0000 </r>
       <r>    5.3102    1.0000 </r>
       <r>    5.5131    1.0000 </r>
       <r>    5.7370    1.0000 </r>
       <r>    6.0019    1.0000 </r>
       <r>    6.2492    1.0000 </r>
       <r>    9.1373    0.0000 </r>
       <r>    9.3804    0.0000 </r>
       <r>    9.5304    0.0000 </r>
       <r>    9.7659    0.0000 </r>
       <r>   10.0803    0.0000 </r>
       <r>   10.5140    0.0000 </r>
       <r>   10.7264    0.0000 </r>
       <r>   11.0530    0.0000 </r>
       <r>   11.3413    0.0000 </r>
       <r>   11.6198    0.0000 </r>
       <r>   12.0974    0.0000 </r>
       <r>   12.5981    0.0000 </r>
      </set>
      <set comment="kpoint 66">
       <r>   -6.2383    1.0000 </r>
       <r>   -6.0988    1.0000 </r>
       <r>   -6.0328    1.0000 </r>
       <r>   -5.9782    1.0000 </r>
       <r>    0.4190    1.0000 </r>
       <r>    0.5657    1.0000 </r>
       <r>    0.7278    1.0000 </r>
       <r>    0.8302    1.0000 </r>
       <r>    0.9705    1.0000 </r>
       <r>    1.0688    1.0000 </r>
       <r>    1.1734    1.0000 </r>
       <r>    1.2597    1.0000 </r>
       <r>    1.3686    1.0000 </r>
       <r>    1.4265    1.0000 </r>
       <r>    1.5520    1.0000 </r>
       <r>    1.6177    1.0000 </r>
       <r>    1.7134    1.0000 </r>
       <r>    1.7284    1.0000 </r>
       <r>    1.8296    1.0000 </r>
       <r>    1.8510    1.0000 </r>
       <r>    1.9168    1.0000 </r>
       <r>    1.9534    1.0000 </r>
       <r>    1.9691    1.0000 </r>
       <r>    2.1089    1.0000 </r>
       <r>    2.1481    1.0000 </r>
       <r>    2.2545    1.0000 </r>
       <r>    2.3136    1.0000 </r>
       <r>    2.4032    1.0000 </r>
       <r>    2.4233    1.0000 </r>
       <r>    2.4873    1.0000 </r>
       <r>    2.5119    1.0000 </r>
       <r>    2.5537    1.0000 </r>
       <r>    2.6229    1.0000 </r>
       <r>    2.6541    1.0000 </r>
       <r>    2.7291    1.0000 </r>
       <r>    2.7536    1.0000 </r>
       <r>    2.7754    1.0000 </r>
       <r>    2.8390    1.0000 </r>
       <r>    2.8749    1.0000 </r>
       <r>    2.9733    1.0000 </r>
       <r>    2.9779    1.0000 </r>
       <r>    3.0506    1.0000 </r>
       <r>    3.1433    1.0000 </r>
       <r>    3.2108    1.0000 </r>
       <r>    3.3876    1.0000 </r>
       <r>    3.4389    1.0000 </r>
       <r>    3.7572    1.0000 </r>
       <r>    3.8345    1.0000 </r>
       <r>    4.1003    1.0000 </r>
       <r>    4.5466    1.0000 </r>
       <r>    4.9745    1.0000 </r>
       <r>    5.3973    1.0000 </r>
       <r>    5.5319    1.0000 </r>
       <r>    5.7147    1.0000 </r>
       <r>    5.9643    1.0000 </r>
       <r>    6.3189    1.0000 </r>
       <r>    9.0596    0.0000 </r>
       <r>    9.4312    0.0000 </r>
       <r>    9.5785    0.0000 </r>
       <r>    9.8063    0.0000 </r>
       <r>   10.0053    0.0000 </r>
       <r>   10.3575    0.0000 </r>
       <r>   10.7202    0.0000 </r>
       <r>   11.0999    0.0000 </r>
       <r>   11.4094    0.0000 </r>
       <r>   11.7007    0.0000 </r>
       <r>   12.0719    0.0000 </r>
       <r>   12.7503    0.0000 </r>
      </set>
      <set comment="kpoint 67">
       <r>   -6.2724    1.0000 </r>
       <r>   -6.1087    1.0000 </r>
       <r>   -6.0356    1.0000 </r>
       <r>   -5.9747    1.0000 </r>
       <r>    0.4218    1.0000 </r>
       <r>    0.5688    1.0000 </r>
       <r>    0.7140    1.0000 </r>
       <r>    0.8589    1.0000 </r>
       <r>    0.9442    1.0000 </r>
       <r>    1.0490    1.0000 </r>
       <r>    1.1751    1.0000 </r>
       <r>    1.2797    1.0000 </r>
       <r>    1.3536    1.0000 </r>
       <r>    1.4190    1.0000 </r>
       <r>    1.5579    1.0000 </r>
       <r>    1.5870    1.0000 </r>
       <r>    1.6985    1.0000 </r>
       <r>    1.7205    1.0000 </r>
       <r>    1.8257    1.0000 </r>
       <r>    1.8453    1.0000 </r>
       <r>    1.9132    1.0000 </r>
       <r>    1.9419    1.0000 </r>
       <r>    1.9730    1.0000 </r>
       <r>    2.1093    1.0000 </r>
       <r>    2.1538    1.0000 </r>
       <r>    2.2643    1.0000 </r>
       <r>    2.3086    1.0000 </r>
       <r>    2.3907    1.0000 </r>
       <r>    2.4226    1.0000 </r>
       <r>    2.4886    1.0000 </r>
       <r>    2.5239    1.0000 </r>
       <r>    2.5481    1.0000 </r>
       <r>    2.6217    1.0000 </r>
       <r>    2.6629    1.0000 </r>
       <r>    2.7348    1.0000 </r>
       <r>    2.7633    1.0000 </r>
       <r>    2.7778    1.0000 </r>
       <r>    2.8378    1.0000 </r>
       <r>    2.9051    1.0000 </r>
       <r>    2.9632    1.0000 </r>
       <r>    2.9839    1.0000 </r>
       <r>    3.0584    1.0000 </r>
       <r>    3.1619    1.0000 </r>
       <r>    3.2245    1.0000 </r>
       <r>    3.4034    1.0000 </r>
       <r>    3.4502    1.0000 </r>
       <r>    3.7696    1.0000 </r>
       <r>    3.8654    1.0000 </r>
       <r>    4.1271    1.0000 </r>
       <r>    4.6367    1.0000 </r>
       <r>    4.8871    1.0000 </r>
       <r>    5.4583    1.0000 </r>
       <r>    5.5271    1.0000 </r>
       <r>    5.7421    1.0000 </r>
       <r>    5.9154    1.0000 </r>
       <r>    6.3737    1.0000 </r>
       <r>    8.9529    0.0000 </r>
       <r>    9.5105    0.0000 </r>
       <r>    9.6066    0.0000 </r>
       <r>    9.7888    0.0000 </r>
       <r>   10.0095    0.0000 </r>
       <r>   10.2308    0.0000 </r>
       <r>   10.7352    0.0000 </r>
       <r>   11.1561    0.0000 </r>
       <r>   11.4088    0.0000 </r>
       <r>   11.8666    0.0000 </r>
       <r>   12.0489    0.0000 </r>
       <r>   12.7723    0.0000 </r>
      </set>
      <set comment="kpoint 68">
       <r>   -6.3112    1.0000 </r>
       <r>   -6.1169    1.0000 </r>
       <r>   -6.0398    1.0000 </r>
       <r>   -5.9711    1.0000 </r>
       <r>    0.4347    1.0000 </r>
       <r>    0.5750    1.0000 </r>
       <r>    0.6941    1.0000 </r>
       <r>    0.8629    1.0000 </r>
       <r>    0.9335    1.0000 </r>
       <r>    1.0265    1.0000 </r>
       <r>    1.1763    1.0000 </r>
       <r>    1.2969    1.0000 </r>
       <r>    1.3422    1.0000 </r>
       <r>    1.4138    1.0000 </r>
       <r>    1.5387    1.0000 </r>
       <r>    1.5583    1.0000 </r>
       <r>    1.6870    1.0000 </r>
       <r>    1.7157    1.0000 </r>
       <r>    1.8063    1.0000 </r>
       <r>    1.8456    1.0000 </r>
       <r>    1.9177    1.0000 </r>
       <r>    1.9272    1.0000 </r>
       <r>    1.9895    1.0000 </r>
       <r>    2.1170    1.0000 </r>
       <r>    2.1622    1.0000 </r>
       <r>    2.2441    1.0000 </r>
       <r>    2.3144    1.0000 </r>
       <r>    2.3680    1.0000 </r>
       <r>    2.4428    1.0000 </r>
       <r>    2.4909    1.0000 </r>
       <r>    2.5361    1.0000 </r>
       <r>    2.5489    1.0000 </r>
       <r>    2.6208    1.0000 </r>
       <r>    2.6699    1.0000 </r>
       <r>    2.7421    1.0000 </r>
       <r>    2.7672    1.0000 </r>
       <r>    2.7899    1.0000 </r>
       <r>    2.8426    1.0000 </r>
       <r>    2.9110    1.0000 </r>
       <r>    2.9616    1.0000 </r>
       <r>    2.9954    1.0000 </r>
       <r>    3.0694    1.0000 </r>
       <r>    3.1776    1.0000 </r>
       <r>    3.2275    1.0000 </r>
       <r>    3.4261    1.0000 </r>
       <r>    3.4868    1.0000 </r>
       <r>    3.7653    1.0000 </r>
       <r>    3.8875    1.0000 </r>
       <r>    4.1802    1.0000 </r>
       <r>    4.7344    1.0000 </r>
       <r>    4.8279    1.0000 </r>
       <r>    5.4297    1.0000 </r>
       <r>    5.5650    1.0000 </r>
       <r>    5.7639    1.0000 </r>
       <r>    5.9006    1.0000 </r>
       <r>    6.4147    1.0000 </r>
       <r>    8.8143    0.0000 </r>
       <r>    9.5165    0.0000 </r>
       <r>    9.6493    0.0000 </r>
       <r>    9.8035    0.0000 </r>
       <r>   10.0703    0.0000 </r>
       <r>   10.1397    0.0000 </r>
       <r>   10.7734    0.0000 </r>
       <r>   11.2242    0.0000 </r>
       <r>   11.3904    0.0000 </r>
       <r>   11.9833    0.0000 </r>
       <r>   12.1053    0.0000 </r>
       <r>   12.7872    0.0000 </r>
      </set>
      <set comment="kpoint 69">
       <r>   -6.3532    1.0000 </r>
       <r>   -6.1243    1.0000 </r>
       <r>   -6.0446    1.0000 </r>
       <r>   -5.9674    1.0000 </r>
       <r>    0.4548    1.0000 </r>
       <r>    0.5816    1.0000 </r>
       <r>    0.6756    1.0000 </r>
       <r>    0.8423    1.0000 </r>
       <r>    0.9294    1.0000 </r>
       <r>    1.0111    1.0000 </r>
       <r>    1.1730    1.0000 </r>
       <r>    1.3110    1.0000 </r>
       <r>    1.3374    1.0000 </r>
       <r>    1.4031    1.0000 </r>
       <r>    1.4953    1.0000 </r>
       <r>    1.5451    1.0000 </r>
       <r>    1.6809    1.0000 </r>
       <r>    1.7124    1.0000 </r>
       <r>    1.7803    1.0000 </r>
       <r>    1.8445    1.0000 </r>
       <r>    1.9087    1.0000 </r>
       <r>    1.9303    1.0000 </r>
       <r>    2.0134    1.0000 </r>
       <r>    2.1314    1.0000 </r>
       <r>    2.1673    1.0000 </r>
       <r>    2.2168    1.0000 </r>
       <r>    2.3171    1.0000 </r>
       <r>    2.3450    1.0000 </r>
       <r>    2.4655    1.0000 </r>
       <r>    2.5016    1.0000 </r>
       <r>    2.5424    1.0000 </r>
       <r>    2.5625    1.0000 </r>
       <r>    2.6206    1.0000 </r>
       <r>    2.6721    1.0000 </r>
       <r>    2.7513    1.0000 </r>
       <r>    2.7689    1.0000 </r>
       <r>    2.7979    1.0000 </r>
       <r>    2.8594    1.0000 </r>
       <r>    2.9049    1.0000 </r>
       <r>    2.9638    1.0000 </r>
       <r>    3.0027    1.0000 </r>
       <r>    3.0840    1.0000 </r>
       <r>    3.1854    1.0000 </r>
       <r>    3.2285    1.0000 </r>
       <r>    3.4547    1.0000 </r>
       <r>    3.5426    1.0000 </r>
       <r>    3.7460    1.0000 </r>
       <r>    3.9078    1.0000 </r>
       <r>    4.2510    1.0000 </r>
       <r>    4.7800    1.0000 </r>
       <r>    4.8607    1.0000 </r>
       <r>    5.3658    1.0000 </r>
       <r>    5.6005    1.0000 </r>
       <r>    5.7169    1.0000 </r>
       <r>    5.9738    1.0000 </r>
       <r>    6.4446    1.0000 </r>
       <r>    8.6447    0.0000 </r>
       <r>    9.4149    0.0000 </r>
       <r>    9.7325    0.0000 </r>
       <r>    9.8782    0.0000 </r>
       <r>   10.0591    0.0000 </r>
       <r>   10.1834    0.0000 </r>
       <r>   10.8420    0.0000 </r>
       <r>   11.2986    0.0000 </r>
       <r>   11.3777    0.0000 </r>
       <r>   11.9902    0.0000 </r>
       <r>   12.2629    0.0000 </r>
       <r>   12.8260    0.0000 </r>
      </set>
      <set comment="kpoint 70">
       <r>   -6.3969    1.0000 </r>
       <r>   -6.1314    1.0000 </r>
       <r>   -6.0489    1.0000 </r>
       <r>   -5.9640    1.0000 </r>
       <r>    0.4780    1.0000 </r>
       <r>    0.5824    1.0000 </r>
       <r>    0.6680    1.0000 </r>
       <r>    0.8157    1.0000 </r>
       <r>    0.9123    1.0000 </r>
       <r>    1.0063    1.0000 </r>
       <r>    1.1651    1.0000 </r>
       <r>    1.3161    1.0000 </r>
       <r>    1.3447    1.0000 </r>
       <r>    1.3780    1.0000 </r>
       <r>    1.4573    1.0000 </r>
       <r>    1.5384    1.0000 </r>
       <r>    1.6722    1.0000 </r>
       <r>    1.7096    1.0000 </r>
       <r>    1.7587    1.0000 </r>
       <r>    1.8351    1.0000 </r>
       <r>    1.9001    1.0000 </r>
       <r>    1.9378    1.0000 </r>
       <r>    2.0367    1.0000 </r>
       <r>    2.1438    1.0000 </r>
       <r>    2.1628    1.0000 </r>
       <r>    2.2058    1.0000 </r>
       <r>    2.3136    1.0000 </r>
       <r>    2.3308    1.0000 </r>
       <r>    2.4767    1.0000 </r>
       <r>    2.5184    1.0000 </r>
       <r>    2.5568    1.0000 </r>
       <r>    2.5730    1.0000 </r>
       <r>    2.6258    1.0000 </r>
       <r>    2.6664    1.0000 </r>
       <r>    2.7599    1.0000 </r>
       <r>    2.7730    1.0000 </r>
       <r>    2.8043    1.0000 </r>
       <r>    2.8810    1.0000 </r>
       <r>    2.9058    1.0000 </r>
       <r>    2.9646    1.0000 </r>
       <r>    3.0034    1.0000 </r>
       <r>    3.0966    1.0000 </r>
       <r>    3.1824    1.0000 </r>
       <r>    3.2349    1.0000 </r>
       <r>    3.4830    1.0000 </r>
       <r>    3.6056    1.0000 </r>
       <r>    3.7184    1.0000 </r>
       <r>    3.9344    1.0000 </r>
       <r>    4.3311    1.0000 </r>
       <r>    4.7909    1.0000 </r>
       <r>    4.9616    1.0000 </r>
       <r>    5.3043    1.0000 </r>
       <r>    5.5571    1.0000 </r>
       <r>    5.7129    1.0000 </r>
       <r>    6.0745    1.0000 </r>
       <r>    6.4664    1.0000 </r>
       <r>    8.4498    0.0000 </r>
       <r>    9.3108    0.0000 </r>
       <r>    9.7037    0.0000 </r>
       <r>    9.9624    0.0000 </r>
       <r>   10.1353    0.0000 </r>
       <r>   10.2839    0.0000 </r>
       <r>   10.9411    0.0000 </r>
       <r>   11.3420    0.0000 </r>
       <r>   11.4114    0.0000 </r>
       <r>   11.9838    0.0000 </r>
       <r>   12.3932    0.0000 </r>
       <r>   12.8865    0.0000 </r>
      </set>
      <set comment="kpoint 71">
       <r>   -6.4408    1.0000 </r>
       <r>   -6.1389    1.0000 </r>
       <r>   -6.0520    1.0000 </r>
       <r>   -5.9609    1.0000 </r>
       <r>    0.4987    1.0000 </r>
       <r>    0.5736    1.0000 </r>
       <r>    0.6747    1.0000 </r>
       <r>    0.7939    1.0000 </r>
       <r>    0.8878    1.0000 </r>
       <r>    1.0019    1.0000 </r>
       <r>    1.1540    1.0000 </r>
       <r>    1.3074    1.0000 </r>
       <r>    1.3405    1.0000 </r>
       <r>    1.3681    1.0000 </r>
       <r>    1.4259    1.0000 </r>
       <r>    1.5434    1.0000 </r>
       <r>    1.6549    1.0000 </r>
       <r>    1.7027    1.0000 </r>
       <r>    1.7515    1.0000 </r>
       <r>    1.8179    1.0000 </r>
       <r>    1.8999    1.0000 </r>
       <r>    1.9405    1.0000 </r>
       <r>    2.0541    1.0000 </r>
       <r>    2.1291    1.0000 </r>
       <r>    2.1684    1.0000 </r>
       <r>    2.2150    1.0000 </r>
       <r>    2.3110    1.0000 </r>
       <r>    2.3272    1.0000 </r>
       <r>    2.4825    1.0000 </r>
       <r>    2.5230    1.0000 </r>
       <r>    2.5722    1.0000 </r>
       <r>    2.5848    1.0000 </r>
       <r>    2.6346    1.0000 </r>
       <r>    2.6590    1.0000 </r>
       <r>    2.7645    1.0000 </r>
       <r>    2.7824    1.0000 </r>
       <r>    2.8159    1.0000 </r>
       <r>    2.8956    1.0000 </r>
       <r>    2.9247    1.0000 </r>
       <r>    2.9614    1.0000 </r>
       <r>    3.0035    1.0000 </r>
       <r>    3.1047    1.0000 </r>
       <r>    3.1739    1.0000 </r>
       <r>    3.2414    1.0000 </r>
       <r>    3.5044    1.0000 </r>
       <r>    3.6471    1.0000 </r>
       <r>    3.7009    1.0000 </r>
       <r>    3.9790    1.0000 </r>
       <r>    4.4160    1.0000 </r>
       <r>    4.8341    1.0000 </r>
       <r>    5.0248    1.0000 </r>
       <r>    5.2581    1.0000 </r>
       <r>    5.4994    1.0000 </r>
       <r>    5.7412    1.0000 </r>
       <r>    6.1787    1.0000 </r>
       <r>    6.4832    1.0000 </r>
       <r>    8.2372    0.0000 </r>
       <r>    9.2158    0.0000 </r>
       <r>    9.5852    0.0000 </r>
       <r>   10.0260    0.0000 </r>
       <r>   10.3223    0.0000 </r>
       <r>   10.3919    0.0000 </r>
       <r>   11.0574    0.0000 </r>
       <r>   11.3459    0.0000 </r>
       <r>   11.5052    0.0000 </r>
       <r>   11.9622    0.0000 </r>
       <r>   12.4817    0.0000 </r>
       <r>   12.9313    0.0000 </r>
      </set>
      <set comment="kpoint 72">
       <r>   -6.4836    1.0000 </r>
       <r>   -6.1469    1.0000 </r>
       <r>   -6.0534    1.0000 </r>
       <r>   -5.9584    1.0000 </r>
       <r>    0.5117    1.0000 </r>
       <r>    0.5621    1.0000 </r>
       <r>    0.6805    1.0000 </r>
       <r>    0.7873    1.0000 </r>
       <r>    0.8663    1.0000 </r>
       <r>    0.9911    1.0000 </r>
       <r>    1.1405    1.0000 </r>
       <r>    1.2775    1.0000 </r>
       <r>    1.3266    1.0000 </r>
       <r>    1.3731    1.0000 </r>
       <r>    1.4131    1.0000 </r>
       <r>    1.5561    1.0000 </r>
       <r>    1.6299    1.0000 </r>
       <r>    1.6953    1.0000 </r>
       <r>    1.7540    1.0000 </r>
       <r>    1.7985    1.0000 </r>
       <r>    1.9049    1.0000 </r>
       <r>    1.9388    1.0000 </r>
       <r>    2.0661    1.0000 </r>
       <r>    2.1122    1.0000 </r>
       <r>    2.1692    1.0000 </r>
       <r>    2.2285    1.0000 </r>
       <r>    2.3121    1.0000 </r>
       <r>    2.3365    1.0000 </r>
       <r>    2.4811    1.0000 </r>
       <r>    2.5178    1.0000 </r>
       <r>    2.5716    1.0000 </r>
       <r>    2.6060    1.0000 </r>
       <r>    2.6313    1.0000 </r>
       <r>    2.6683    1.0000 </r>
       <r>    2.7653    1.0000 </r>
       <r>    2.7951    1.0000 </r>
       <r>    2.8365    1.0000 </r>
       <r>    2.9080    1.0000 </r>
       <r>    2.9508    1.0000 </r>
       <r>    2.9569    1.0000 </r>
       <r>    3.0069    1.0000 </r>
       <r>    3.1100    1.0000 </r>
       <r>    3.1646    1.0000 </r>
       <r>    3.2430    1.0000 </r>
       <r>    3.5157    1.0000 </r>
       <r>    3.6283    1.0000 </r>
       <r>    3.7220    1.0000 </r>
       <r>    4.0527    1.0000 </r>
       <r>    4.5051    1.0000 </r>
       <r>    4.8939    1.0000 </r>
       <r>    5.0016    1.0000 </r>
       <r>    5.2198    1.0000 </r>
       <r>    5.5408    1.0000 </r>
       <r>    5.7659    1.0000 </r>
       <r>    6.2792    1.0000 </r>
       <r>    6.4974    1.0000 </r>
       <r>    8.0140    0.0000 </r>
       <r>    9.1196    0.0000 </r>
       <r>    9.4467    0.0000 </r>
       <r>   10.0713    0.0000 </r>
       <r>   10.4889    0.0000 </r>
       <r>   10.5456    0.0000 </r>
       <r>   11.1631    0.0000 </r>
       <r>   11.3410    0.0000 </r>
       <r>   11.6387    0.0000 </r>
       <r>   11.9275    0.0000 </r>
       <r>   12.5225    0.0000 </r>
       <r>   12.9351    0.0000 </r>
      </set>
      <set comment="kpoint 73">
       <r>   -6.5243    1.0000 </r>
       <r>   -6.1553    1.0000 </r>
       <r>   -6.0531    1.0000 </r>
       <r>   -5.9565    1.0000 </r>
       <r>    0.5141    1.0000 </r>
       <r>    0.5557    1.0000 </r>
       <r>    0.6704    1.0000 </r>
       <r>    0.7931    1.0000 </r>
       <r>    0.8618    1.0000 </r>
       <r>    0.9737    1.0000 </r>
       <r>    1.1253    1.0000 </r>
       <r>    1.2440    1.0000 </r>
       <r>    1.3158    1.0000 </r>
       <r>    1.3505    1.0000 </r>
       <r>    1.4335    1.0000 </r>
       <r>    1.5727    1.0000 </r>
       <r>    1.6044    1.0000 </r>
       <r>    1.6884    1.0000 </r>
       <r>    1.7538    1.0000 </r>
       <r>    1.7862    1.0000 </r>
       <r>    1.9114    1.0000 </r>
       <r>    1.9391    1.0000 </r>
       <r>    2.0753    1.0000 </r>
       <r>    2.1016    1.0000 </r>
       <r>    2.1644    1.0000 </r>
       <r>    2.2392    1.0000 </r>
       <r>    2.3079    1.0000 </r>
       <r>    2.3603    1.0000 </r>
       <r>    2.4688    1.0000 </r>
       <r>    2.5080    1.0000 </r>
       <r>    2.5698    1.0000 </r>
       <r>    2.6156    1.0000 </r>
       <r>    2.6258    1.0000 </r>
       <r>    2.6868    1.0000 </r>
       <r>    2.7655    1.0000 </r>
       <r>    2.8122    1.0000 </r>
       <r>    2.8609    1.0000 </r>
       <r>    2.9207    1.0000 </r>
       <r>    2.9481    1.0000 </r>
       <r>    2.9836    1.0000 </r>
       <r>    3.0140    1.0000 </r>
       <r>    3.1139    1.0000 </r>
       <r>    3.1571    1.0000 </r>
       <r>    3.2399    1.0000 </r>
       <r>    3.5174    1.0000 </r>
       <r>    3.5955    1.0000 </r>
       <r>    3.7368    1.0000 </r>
       <r>    4.1542    1.0000 </r>
       <r>    4.5976    1.0000 </r>
       <r>    4.8851    1.0000 </r>
       <r>    4.9455    1.0000 </r>
       <r>    5.2336    1.0000 </r>
       <r>    5.6702    1.0000 </r>
       <r>    5.7862    1.0000 </r>
       <r>    6.3719    1.0000 </r>
       <r>    6.5113    1.0000 </r>
       <r>    7.7868    0.0000 </r>
       <r>    8.9993    0.0000 </r>
       <r>    9.3291    0.0000 </r>
       <r>   10.0875    0.0000 </r>
       <r>   10.5690    0.0000 </r>
       <r>   10.7573    0.0000 </r>
       <r>   11.2442    0.0000 </r>
       <r>   11.3101    0.0000 </r>
       <r>   11.8157    0.0000 </r>
       <r>   11.9219    0.0000 </r>
       <r>   12.5009    0.0000 </r>
       <r>   12.8981    0.0000 </r>
      </set>
      <set comment="kpoint 74">
       <r>   -6.5617    1.0000 </r>
       <r>   -6.1637    1.0000 </r>
       <r>   -6.0515    1.0000 </r>
       <r>   -5.9551    1.0000 </r>
       <r>    0.5089    1.0000 </r>
       <r>    0.5542    1.0000 </r>
       <r>    0.6507    1.0000 </r>
       <r>    0.7867    1.0000 </r>
       <r>    0.8845    1.0000 </r>
       <r>    0.9554    1.0000 </r>
       <r>    1.1108    1.0000 </r>
       <r>    1.2168    1.0000 </r>
       <r>    1.2965    1.0000 </r>
       <r>    1.3286    1.0000 </r>
       <r>    1.4577    1.0000 </r>
       <r>    1.5823    1.0000 </r>
       <r>    1.5931    1.0000 </r>
       <r>    1.6793    1.0000 </r>
       <r>    1.7411    1.0000 </r>
       <r>    1.7914    1.0000 </r>
       <r>    1.9202    1.0000 </r>
       <r>    1.9454    1.0000 </r>
       <r>    2.0807    1.0000 </r>
       <r>    2.0995    1.0000 </r>
       <r>    2.1580    1.0000 </r>
       <r>    2.2474    1.0000 </r>
       <r>    2.2994    1.0000 </r>
       <r>    2.3848    1.0000 </r>
       <r>    2.4518    1.0000 </r>
       <r>    2.4972    1.0000 </r>
       <r>    2.5627    1.0000 </r>
       <r>    2.6128    1.0000 </r>
       <r>    2.6235    1.0000 </r>
       <r>    2.7073    1.0000 </r>
       <r>    2.7667    1.0000 </r>
       <r>    2.8368    1.0000 </r>
       <r>    2.8739    1.0000 </r>
       <r>    2.9320    1.0000 </r>
       <r>    2.9505    1.0000 </r>
       <r>    3.0080    1.0000 </r>
       <r>    3.0295    1.0000 </r>
       <r>    3.1166    1.0000 </r>
       <r>    3.1525    1.0000 </r>
       <r>    3.2370    1.0000 </r>
       <r>    3.5115    1.0000 </r>
       <r>    3.5665    1.0000 </r>
       <r>    3.7377    1.0000 </r>
       <r>    4.2707    1.0000 </r>
       <r>    4.6638    1.0000 </r>
       <r>    4.7803    1.0000 </r>
       <r>    4.9304    1.0000 </r>
       <r>    5.3335    1.0000 </r>
       <r>    5.7726    1.0000 </r>
       <r>    5.8614    1.0000 </r>
       <r>    6.4523    1.0000 </r>
       <r>    6.5283    1.0000 </r>
       <r>    7.5613    0.0000 </r>
       <r>    8.8405    0.0000 </r>
       <r>    9.2533    0.0000 </r>
       <r>   10.0661    0.0000 </r>
       <r>   10.5896    0.0000 </r>
       <r>   10.9298    0.0000 </r>
       <r>   11.2679    0.0000 </r>
       <r>   11.3296    0.0000 </r>
       <r>   11.9024    0.0000 </r>
       <r>   12.0810    0.0000 </r>
       <r>   12.4835    0.0000 </r>
       <r>   12.9163    0.0000 </r>
      </set>
      <set comment="kpoint 75">
       <r>   -6.5949    1.0000 </r>
       <r>   -6.1717    1.0000 </r>
       <r>   -6.0491    1.0000 </r>
       <r>   -5.9542    1.0000 </r>
       <r>    0.5019    1.0000 </r>
       <r>    0.5544    1.0000 </r>
       <r>    0.6289    1.0000 </r>
       <r>    0.7723    1.0000 </r>
       <r>    0.8965    1.0000 </r>
       <r>    0.9595    1.0000 </r>
       <r>    1.0998    1.0000 </r>
       <r>    1.1946    1.0000 </r>
       <r>    1.2754    1.0000 </r>
       <r>    1.3079    1.0000 </r>
       <r>    1.4782    1.0000 </r>
       <r>    1.5663    1.0000 </r>
       <r>    1.6142    1.0000 </r>
       <r>    1.6678    1.0000 </r>
       <r>    1.7229    1.0000 </r>
       <r>    1.8071    1.0000 </r>
       <r>    1.9359    1.0000 </r>
       <r>    1.9555    1.0000 </r>
       <r>    2.0791    1.0000 </r>
       <r>    2.1101    1.0000 </r>
       <r>    2.1520    1.0000 </r>
       <r>    2.2506    1.0000 </r>
       <r>    2.2886    1.0000 </r>
       <r>    2.4030    1.0000 </r>
       <r>    2.4400    1.0000 </r>
       <r>    2.4877    1.0000 </r>
       <r>    2.5460    1.0000 </r>
       <r>    2.6056    1.0000 </r>
       <r>    2.6186    1.0000 </r>
       <r>    2.7274    1.0000 </r>
       <r>    2.7702    1.0000 </r>
       <r>    2.8609    1.0000 </r>
       <r>    2.8734    1.0000 </r>
       <r>    2.9398    1.0000 </r>
       <r>    2.9617    1.0000 </r>
       <r>    3.0222    1.0000 </r>
       <r>    3.0576    1.0000 </r>
       <r>    3.1175    1.0000 </r>
       <r>    3.1480    1.0000 </r>
       <r>    3.2447    1.0000 </r>
       <r>    3.4978    1.0000 </r>
       <r>    3.5473    1.0000 </r>
       <r>    3.7307    1.0000 </r>
       <r>    4.3795    1.0000 </r>
       <r>    4.5691    1.0000 </r>
       <r>    4.8187    1.0000 </r>
       <r>    4.9205    1.0000 </r>
       <r>    5.4748    1.0000 </r>
       <r>    5.7888    1.0000 </r>
       <r>    6.0270    1.0000 </r>
       <r>    6.5097    1.0000 </r>
       <r>    6.5593    1.0000 </r>
       <r>    7.3431    0.0000 </r>
       <r>    8.6558    0.0000 </r>
       <r>    9.2116    0.0000 </r>
       <r>   10.0049    0.0000 </r>
       <r>   10.5208    0.0000 </r>
       <r>   11.0305    0.0000 </r>
       <r>   11.2810    0.0000 </r>
       <r>   11.4415    0.0000 </r>
       <r>   11.9605    0.0000 </r>
       <r>   12.2225    0.0000 </r>
       <r>   12.6071    0.0000 </r>
       <r>   12.9357    0.0000 </r>
      </set>
      <set comment="kpoint 76">
       <r>   -6.6232    1.0000 </r>
       <r>   -6.1788    1.0000 </r>
       <r>   -6.0463    1.0000 </r>
       <r>   -5.9537    1.0000 </r>
       <r>    0.4955    1.0000 </r>
       <r>    0.5558    1.0000 </r>
       <r>    0.6085    1.0000 </r>
       <r>    0.7580    1.0000 </r>
       <r>    0.8778    1.0000 </r>
       <r>    0.9927    1.0000 </r>
       <r>    1.0932    1.0000 </r>
       <r>    1.1755    1.0000 </r>
       <r>    1.2614    1.0000 </r>
       <r>    1.2856    1.0000 </r>
       <r>    1.4934    1.0000 </r>
       <r>    1.5538    1.0000 </r>
       <r>    1.6331    1.0000 </r>
       <r>    1.6584    1.0000 </r>
       <r>    1.7052    1.0000 </r>
       <r>    1.8228    1.0000 </r>
       <r>    1.9516    1.0000 </r>
       <r>    1.9762    1.0000 </r>
       <r>    2.0759    1.0000 </r>
       <r>    2.1289    1.0000 </r>
       <r>    2.1476    1.0000 </r>
       <r>    2.2428    1.0000 </r>
       <r>    2.2833    1.0000 </r>
       <r>    2.4133    1.0000 </r>
       <r>    2.4373    1.0000 </r>
       <r>    2.4796    1.0000 </r>
       <r>    2.5213    1.0000 </r>
       <r>    2.5923    1.0000 </r>
       <r>    2.6157    1.0000 </r>
       <r>    2.7401    1.0000 </r>
       <r>    2.7767    1.0000 </r>
       <r>    2.8604    1.0000 </r>
       <r>    2.8855    1.0000 </r>
       <r>    2.9468    1.0000 </r>
       <r>    2.9726    1.0000 </r>
       <r>    3.0333    1.0000 </r>
       <r>    3.0907    1.0000 </r>
       <r>    3.1174    1.0000 </r>
       <r>    3.1416    1.0000 </r>
       <r>    3.2683    1.0000 </r>
       <r>    3.4753    1.0000 </r>
       <r>    3.5398    1.0000 </r>
       <r>    3.7219    1.0000 </r>
       <r>    4.3548    1.0000 </r>
       <r>    4.5514    1.0000 </r>
       <r>    4.8405    1.0000 </r>
       <r>    4.9828    1.0000 </r>
       <r>    5.6151    1.0000 </r>
       <r>    5.8118    1.0000 </r>
       <r>    6.1855    1.0000 </r>
       <r>    6.5421    1.0000 </r>
       <r>    6.6082    1.0000 </r>
       <r>    7.1386    0.0000 </r>
       <r>    8.4651    0.0000 </r>
       <r>    9.1924    0.0000 </r>
       <r>    9.9082    0.0000 </r>
       <r>   10.3888    0.0000 </r>
       <r>   11.0847    0.0000 </r>
       <r>   11.3369    0.0000 </r>
       <r>   11.5691    0.0000 </r>
       <r>   12.0215    0.0000 </r>
       <r>   12.2605    0.0000 </r>
       <r>   12.8990    0.0000 </r>
       <r>   12.9880    0.0000 </r>
      </set>
      <set comment="kpoint 77">
       <r>   -6.6459    1.0000 </r>
       <r>   -6.1846    1.0000 </r>
       <r>   -6.0436    1.0000 </r>
       <r>   -5.9535    1.0000 </r>
       <r>    0.4897    1.0000 </r>
       <r>    0.5585    1.0000 </r>
       <r>    0.5913    1.0000 </r>
       <r>    0.7475    1.0000 </r>
       <r>    0.8521    1.0000 </r>
       <r>    1.0255    1.0000 </r>
       <r>    1.0893    1.0000 </r>
       <r>    1.1613    1.0000 </r>
       <r>    1.2512    1.0000 </r>
       <r>    1.2689    1.0000 </r>
       <r>    1.5016    1.0000 </r>
       <r>    1.5460    1.0000 </r>
       <r>    1.6347    1.0000 </r>
       <r>    1.6636    1.0000 </r>
       <r>    1.6943    1.0000 </r>
       <r>    1.8284    1.0000 </r>
       <r>    1.9583    1.0000 </r>
       <r>    2.0146    1.0000 </r>
       <r>    2.0734    1.0000 </r>
       <r>    2.1330    1.0000 </r>
       <r>    2.1644    1.0000 </r>
       <r>    2.2314    1.0000 </r>
       <r>    2.2843    1.0000 </r>
       <r>    2.4139    1.0000 </r>
       <r>    2.4387    1.0000 </r>
       <r>    2.4705    1.0000 </r>
       <r>    2.4980    1.0000 </r>
       <r>    2.5764    1.0000 </r>
       <r>    2.6143    1.0000 </r>
       <r>    2.7352    1.0000 </r>
       <r>    2.7885    1.0000 </r>
       <r>    2.8567    1.0000 </r>
       <r>    2.8923    1.0000 </r>
       <r>    2.9558    1.0000 </r>
       <r>    2.9808    1.0000 </r>
       <r>    3.0419    1.0000 </r>
       <r>    3.1046    1.0000 </r>
       <r>    3.1342    1.0000 </r>
       <r>    3.1434    1.0000 </r>
       <r>    3.3008    1.0000 </r>
       <r>    3.4477    1.0000 </r>
       <r>    3.5377    1.0000 </r>
       <r>    3.7193    1.0000 </r>
       <r>    4.2136    1.0000 </r>
       <r>    4.6316    1.0000 </r>
       <r>    4.8395    1.0000 </r>
       <r>    5.0841    1.0000 </r>
       <r>    5.6965    1.0000 </r>
       <r>    5.8915    1.0000 </r>
       <r>    6.3090    1.0000 </r>
       <r>    6.5752    1.0000 </r>
       <r>    6.6534    1.0000 </r>
       <r>    6.9573   -0.0000 </r>
       <r>    8.2849    0.0000 </r>
       <r>    9.1918    0.0000 </r>
       <r>    9.7851    0.0000 </r>
       <r>   10.2498    0.0000 </r>
       <r>   11.1218    0.0000 </r>
       <r>   11.4002    0.0000 </r>
       <r>   11.6806    0.0000 </r>
       <r>   12.0568    0.0000 </r>
       <r>   12.3020    0.0000 </r>
       <r>   13.0562    0.0000 </r>
       <r>   13.2263    0.0000 </r>
      </set>
      <set comment="kpoint 78">
       <r>   -6.6625    1.0000 </r>
       <r>   -6.1890    1.0000 </r>
       <r>   -6.0413    1.0000 </r>
       <r>   -5.9534    1.0000 </r>
       <r>    0.4850    1.0000 </r>
       <r>    0.5605    1.0000 </r>
       <r>    0.5796    1.0000 </r>
       <r>    0.7443    1.0000 </r>
       <r>    0.8250    1.0000 </r>
       <r>    1.0496    1.0000 </r>
       <r>    1.0860    1.0000 </r>
       <r>    1.1547    1.0000 </r>
       <r>    1.2323    1.0000 </r>
       <r>    1.2701    1.0000 </r>
       <r>    1.5011    1.0000 </r>
       <r>    1.5452    1.0000 </r>
       <r>    1.6271    1.0000 </r>
       <r>    1.6635    1.0000 </r>
       <r>    1.7049    1.0000 </r>
       <r>    1.8200    1.0000 </r>
       <r>    1.9648    1.0000 </r>
       <r>    2.0468    1.0000 </r>
       <r>    2.0759    1.0000 </r>
       <r>    2.1290    1.0000 </r>
       <r>    2.1960    1.0000 </r>
       <r>    2.2329    1.0000 </r>
       <r>    2.2848    1.0000 </r>
       <r>    2.3980    1.0000 </r>
       <r>    2.4266    1.0000 </r>
       <r>    2.4665    1.0000 </r>
       <r>    2.4924    1.0000 </r>
       <r>    2.5630    1.0000 </r>
       <r>    2.6119    1.0000 </r>
       <r>    2.7175    1.0000 </r>
       <r>    2.8016    1.0000 </r>
       <r>    2.8550    1.0000 </r>
       <r>    2.8933    1.0000 </r>
       <r>    2.9648    1.0000 </r>
       <r>    2.9874    1.0000 </r>
       <r>    3.0470    1.0000 </r>
       <r>    3.0991    1.0000 </r>
       <r>    3.1353    1.0000 </r>
       <r>    3.1877    1.0000 </r>
       <r>    3.3325    1.0000 </r>
       <r>    3.4176    1.0000 </r>
       <r>    3.5341    1.0000 </r>
       <r>    3.7328    1.0000 </r>
       <r>    4.0758    1.0000 </r>
       <r>    4.6826    1.0000 </r>
       <r>    4.8581    1.0000 </r>
       <r>    5.1777    1.0000 </r>
       <r>    5.7167    1.0000 </r>
       <r>    6.0188    1.0000 </r>
       <r>    6.3810    1.0000 </r>
       <r>    6.6043    1.0000 </r>
       <r>    6.6896    1.0000 </r>
       <r>    6.8194   -0.0000 </r>
       <r>    8.1325    0.0000 </r>
       <r>    9.2117    0.0000 </r>
       <r>    9.6507    0.0000 </r>
       <r>   10.1394    0.0000 </r>
       <r>   11.1477    0.0000 </r>
       <r>   11.4547    0.0000 </r>
       <r>   11.7622    0.0000 </r>
       <r>   12.0653    0.0000 </r>
       <r>   12.3597    0.0000 </r>
       <r>   13.1340    0.0000 </r>
       <r>   13.3403    0.0000 </r>
      </set>
      <set comment="kpoint 79">
       <r>   -6.6726    1.0000 </r>
       <r>   -6.1917    1.0000 </r>
       <r>   -6.0399    1.0000 </r>
       <r>   -5.9534    1.0000 </r>
       <r>    0.4819    1.0000 </r>
       <r>    0.5590    1.0000 </r>
       <r>    0.5756    1.0000 </r>
       <r>    0.7498    1.0000 </r>
       <r>    0.7996    1.0000 </r>
       <r>    1.0632    1.0000 </r>
       <r>    1.0846    1.0000 </r>
       <r>    1.1541    1.0000 </r>
       <r>    1.2153    1.0000 </r>
       <r>    1.2764    1.0000 </r>
       <r>    1.4967    1.0000 </r>
       <r>    1.5479    1.0000 </r>
       <r>    1.6211    1.0000 </r>
       <r>    1.6574    1.0000 </r>
       <r>    1.7273    1.0000 </r>
       <r>    1.8019    1.0000 </r>
       <r>    1.9726    1.0000 </r>
       <r>    2.0495    1.0000 </r>
       <r>    2.0833    1.0000 </r>
       <r>    2.1360    1.0000 </r>
       <r>    2.2271    1.0000 </r>
       <r>    2.2553    1.0000 </r>
       <r>    2.2813    1.0000 </r>
       <r>    2.3599    1.0000 </r>
       <r>    2.4117    1.0000 </r>
       <r>    2.4672    1.0000 </r>
       <r>    2.4986    1.0000 </r>
       <r>    2.5575    1.0000 </r>
       <r>    2.6067    1.0000 </r>
       <r>    2.7001    1.0000 </r>
       <r>    2.8110    1.0000 </r>
       <r>    2.8524    1.0000 </r>
       <r>    2.8940    1.0000 </r>
       <r>    2.9718    1.0000 </r>
       <r>    2.9918    1.0000 </r>
       <r>    3.0490    1.0000 </r>
       <r>    3.0944    1.0000 </r>
       <r>    3.1355    1.0000 </r>
       <r>    3.2321    1.0000 </r>
       <r>    3.3551    1.0000 </r>
       <r>    3.3888    1.0000 </r>
       <r>    3.5278    1.0000 </r>
       <r>    3.7685    1.0000 </r>
       <r>    3.9597    1.0000 </r>
       <r>    4.6996    1.0000 </r>
       <r>    4.8878    1.0000 </r>
       <r>    5.2444    1.0000 </r>
       <r>    5.7203    1.0000 </r>
       <r>    6.1308    1.0000 </r>
       <r>    6.4116    1.0000 </r>
       <r>    6.5789    1.0000 </r>
       <r>    6.7233    1.0028 </r>
       <r>    6.7614   -0.0262 </r>
       <r>    8.0280    0.0000 </r>
       <r>    9.2515    0.0000 </r>
       <r>    9.5285    0.0000 </r>
       <r>   10.0714    0.0000 </r>
       <r>   11.1632    0.0000 </r>
       <r>   11.4910    0.0000 </r>
       <r>   11.8102    0.0000 </r>
       <r>   12.0656    0.0000 </r>
       <r>   12.4076    0.0000 </r>
       <r>   13.1892    0.0000 </r>
       <r>   13.3231    0.0000 </r>
      </set>
      <set comment="kpoint 80">
       <r>   -6.6759    1.0000 </r>
       <r>   -6.1926    1.0000 </r>
       <r>   -6.0394    1.0000 </r>
       <r>   -5.9534    1.0000 </r>
       <r>    0.4808    1.0000 </r>
       <r>    0.5575    1.0000 </r>
       <r>    0.5753    1.0000 </r>
       <r>    0.7569    1.0000 </r>
       <r>    0.7855    1.0000 </r>
       <r>    1.0667    1.0000 </r>
       <r>    1.0850    1.0000 </r>
       <r>    1.1549    1.0000 </r>
       <r>    1.2083    1.0000 </r>
       <r>    1.2794    1.0000 </r>
       <r>    1.4945    1.0000 </r>
       <r>    1.5494    1.0000 </r>
       <r>    1.6190    1.0000 </r>
       <r>    1.6548    1.0000 </r>
       <r>    1.7412    1.0000 </r>
       <r>    1.7893    1.0000 </r>
       <r>    1.9765    1.0000 </r>
       <r>    2.0468    1.0000 </r>
       <r>    2.0842    1.0000 </r>
       <r>    2.1411    1.0000 </r>
       <r>    2.2471    1.0000 </r>
       <r>    2.2701    1.0000 </r>
       <r>    2.2849    1.0000 </r>
       <r>    2.3277    1.0000 </r>
       <r>    2.4055    1.0000 </r>
       <r>    2.4679    1.0000 </r>
       <r>    2.5015    1.0000 </r>
       <r>    2.5583    1.0000 </r>
       <r>    2.6028    1.0000 </r>
       <r>    2.6932    1.0000 </r>
       <r>    2.8143    1.0000 </r>
       <r>    2.8511    1.0000 </r>
       <r>    2.8944    1.0000 </r>
       <r>    2.9745    1.0000 </r>
       <r>    2.9934    1.0000 </r>
       <r>    3.0495    1.0000 </r>
       <r>    3.0926    1.0000 </r>
       <r>    3.1356    1.0000 </r>
       <r>    3.2536    1.0000 </r>
       <r>    3.3605    1.0000 </r>
       <r>    3.3766    1.0000 </r>
       <r>    3.5243    1.0000 </r>
       <r>    3.8043    1.0000 </r>
       <r>    3.8963    1.0000 </r>
       <r>    4.7026    1.0000 </r>
       <r>    4.9012    1.0000 </r>
       <r>    5.2688    1.0000 </r>
       <r>    5.7208    1.0000 </r>
       <r>    6.1790    1.0000 </r>
       <r>    6.4198    1.0000 </r>
       <r>    6.5472    1.0000 </r>
       <r>    6.7384    0.9840 </r>
       <r>    6.7548   -0.0054 </r>
       <r>    7.9903    0.0000 </r>
       <r>    9.2822    0.0000 </r>
       <r>    9.4677    0.0000 </r>
       <r>   10.0487    0.0000 </r>
       <r>   11.1683    0.0000 </r>
       <r>   11.5037    0.0000 </r>
       <r>   11.8258    0.0000 </r>
       <r>   12.0655    0.0000 </r>
       <r>   12.4262    0.0000 </r>
       <r>   13.2086    0.0000 </r>
       <r>   13.3119    0.0000 </r>
      </set>
      <set comment="kpoint 81">
       <r>   -6.6759    1.0000 </r>
       <r>   -6.1926    1.0000 </r>
       <r>   -6.0394    1.0000 </r>
       <r>   -5.9534    1.0000 </r>
       <r>    0.4808    1.0000 </r>
       <r>    0.5575    1.0000 </r>
       <r>    0.5753    1.0000 </r>
       <r>    0.7569    1.0000 </r>
       <r>    0.7855    1.0000 </r>
       <r>    1.0667    1.0000 </r>
       <r>    1.0850    1.0000 </r>
       <r>    1.1549    1.0000 </r>
       <r>    1.2083    1.0000 </r>
       <r>    1.2794    1.0000 </r>
       <r>    1.4945    1.0000 </r>
       <r>    1.5494    1.0000 </r>
       <r>    1.6190    1.0000 </r>
       <r>    1.6548    1.0000 </r>
       <r>    1.7412    1.0000 </r>
       <r>    1.7893    1.0000 </r>
       <r>    1.9765    1.0000 </r>
       <r>    2.0468    1.0000 </r>
       <r>    2.0842    1.0000 </r>
       <r>    2.1411    1.0000 </r>
       <r>    2.2471    1.0000 </r>
       <r>    2.2701    1.0000 </r>
       <r>    2.2849    1.0000 </r>
       <r>    2.3277    1.0000 </r>
       <r>    2.4055    1.0000 </r>
       <r>    2.4679    1.0000 </r>
       <r>    2.5015    1.0000 </r>
       <r>    2.5583    1.0000 </r>
       <r>    2.6028    1.0000 </r>
       <r>    2.6932    1.0000 </r>
       <r>    2.8143    1.0000 </r>
       <r>    2.8511    1.0000 </r>
       <r>    2.8944    1.0000 </r>
       <r>    2.9745    1.0000 </r>
       <r>    2.9934    1.0000 </r>
       <r>    3.0495    1.0000 </r>
       <r>    3.0926    1.0000 </r>
       <r>    3.1356    1.0000 </r>
       <r>    3.2536    1.0000 </r>
       <r>    3.3605    1.0000 </r>
       <r>    3.3766    1.0000 </r>
       <r>    3.5243    1.0000 </r>
       <r>    3.8043    1.0000 </r>
       <r>    3.8963    1.0000 </r>
       <r>    4.7026    1.0000 </r>
       <r>    4.9012    1.0000 </r>
       <r>    5.2688    1.0000 </r>
       <r>    5.7208    1.0000 </r>
       <r>    6.1790    1.0000 </r>
       <r>    6.4198    1.0000 </r>
       <r>    6.5472    1.0000 </r>
       <r>    6.7384    0.9840 </r>
       <r>    6.7548   -0.0054 </r>
       <r>    7.9903    0.0000 </r>
       <r>    9.2822    0.0000 </r>
       <r>    9.4677    0.0000 </r>
       <r>   10.0487    0.0000 </r>
       <r>   11.1683    0.0000 </r>
       <r>   11.5037    0.0000 </r>
       <r>   11.8258    0.0000 </r>
       <r>   12.0655    0.0000 </r>
       <r>   12.4262    0.0000 </r>
       <r>   13.2088    0.0000 </r>
       <r>   13.3117    0.0000 </r>
      </set>
      <set comment="kpoint 82">
       <r>   -6.6743    1.0000 </r>
       <r>   -6.1934    1.0000 </r>
       <r>   -6.0403    1.0000 </r>
       <r>   -5.9535    1.0000 </r>
       <r>    0.4802    1.0000 </r>
       <r>    0.5550    1.0000 </r>
       <r>    0.5792    1.0000 </r>
       <r>    0.7473    1.0000 </r>
       <r>    0.7927    1.0000 </r>
       <r>    1.0574    1.0000 </r>
       <r>    1.0888    1.0000 </r>
       <r>    1.1579    1.0000 </r>
       <r>    1.2128    1.0000 </r>
       <r>    1.2830    1.0000 </r>
       <r>    1.4928    1.0000 </r>
       <r>    1.5484    1.0000 </r>
       <r>    1.6201    1.0000 </r>
       <r>    1.6562    1.0000 </r>
       <r>    1.7276    1.0000 </r>
       <r>    1.8027    1.0000 </r>
       <r>    1.9726    1.0000 </r>
       <r>    2.0484    1.0000 </r>
       <r>    2.0867    1.0000 </r>
       <r>    2.1395    1.0000 </r>
       <r>    2.2368    1.0000 </r>
       <r>    2.2645    1.0000 </r>
       <r>    2.2861    1.0000 </r>
       <r>    2.3381    1.0000 </r>
       <r>    2.4042    1.0000 </r>
       <r>    2.4666    1.0000 </r>
       <r>    2.5039    1.0000 </r>
       <r>    2.5586    1.0000 </r>
       <r>    2.6023    1.0000 </r>
       <r>    2.6974    1.0000 </r>
       <r>    2.8133    1.0000 </r>
       <r>    2.8497    1.0000 </r>
       <r>    2.8925    1.0000 </r>
       <r>    2.9719    1.0000 </r>
       <r>    2.9927    1.0000 </r>
       <r>    3.0513    1.0000 </r>
       <r>    3.0937    1.0000 </r>
       <r>    3.1312    1.0000 </r>
       <r>    3.2600    1.0000 </r>
       <r>    3.3599    1.0000 </r>
       <r>    3.3752    1.0000 </r>
       <r>    3.5238    1.0000 </r>
       <r>    3.7624    1.0000 </r>
       <r>    3.9483    1.0000 </r>
       <r>    4.6968    1.0000 </r>
       <r>    4.9119    1.0000 </r>
       <r>    5.2688    1.0000 </r>
       <r>    5.7158    1.0000 </r>
       <r>    6.1696    1.0000 </r>
       <r>    6.4032    1.0000 </r>
       <r>    6.5470    1.0000 </r>
       <r>    6.7365    1.0206 </r>
       <r>    6.7828   -0.0000 </r>
       <r>    7.9995    0.0000 </r>
       <r>    9.2270    0.0000 </r>
       <r>    9.4930    0.0000 </r>
       <r>   10.0721    0.0000 </r>
       <r>   11.1744    0.0000 </r>
       <r>   11.5019    0.0000 </r>
       <r>   11.8226    0.0000 </r>
       <r>   12.0683    0.0000 </r>
       <r>   12.4222    0.0000 </r>
       <r>   13.2028    0.0000 </r>
       <r>   13.3104    0.0000 </r>
      </set>
      <set comment="kpoint 83">
       <r>   -6.6695    1.0000 </r>
       <r>   -6.1959    1.0000 </r>
       <r>   -6.0431    1.0000 </r>
       <r>   -5.9538    1.0000 </r>
       <r>    0.4786    1.0000 </r>
       <r>    0.5489    1.0000 </r>
       <r>    0.5893    1.0000 </r>
       <r>    0.7296    1.0000 </r>
       <r>    0.8034    1.0000 </r>
       <r>    1.0394    1.0000 </r>
       <r>    1.0924    1.0000 </r>
       <r>    1.1664    1.0000 </r>
       <r>    1.2228    1.0000 </r>
       <r>    1.2948    1.0000 </r>
       <r>    1.4882    1.0000 </r>
       <r>    1.5451    1.0000 </r>
       <r>    1.6217    1.0000 </r>
       <r>    1.6604    1.0000 </r>
       <r>    1.7061    1.0000 </r>
       <r>    1.8246    1.0000 </r>
       <r>    1.9639    1.0000 </r>
       <r>    2.0488    1.0000 </r>
       <r>    2.0958    1.0000 </r>
       <r>    2.1346    1.0000 </r>
       <r>    2.2097    1.0000 </r>
       <r>    2.2591    1.0000 </r>
       <r>    2.2891    1.0000 </r>
       <r>    2.3546    1.0000 </r>
       <r>    2.4030    1.0000 </r>
       <r>    2.4629    1.0000 </r>
       <r>    2.5086    1.0000 </r>
       <r>    2.5604    1.0000 </r>
       <r>    2.6016    1.0000 </r>
       <r>    2.7092    1.0000 </r>
       <r>    2.8103    1.0000 </r>
       <r>    2.8458    1.0000 </r>
       <r>    2.8880    1.0000 </r>
       <r>    2.9649    1.0000 </r>
       <r>    2.9906    1.0000 </r>
       <r>    3.0550    1.0000 </r>
       <r>    3.0963    1.0000 </r>
       <r>    3.1225    1.0000 </r>
       <r>    3.2739    1.0000 </r>
       <r>    3.3567    1.0000 </r>
       <r>    3.3753    1.0000 </r>
       <r>    3.5193    1.0000 </r>
       <r>    3.7062    1.0000 </r>
       <r>    4.0356    1.0000 </r>
       <r>    4.6830    1.0000 </r>
       <r>    4.9404    1.0000 </r>
       <r>    5.2688    1.0000 </r>
       <r>    5.7018    1.0000 </r>
       <r>    6.1409    1.0000 </r>
       <r>    6.3709    1.0000 </r>
       <r>    6.5416    1.0000 </r>
       <r>    6.7329    1.0341 </r>
       <r>    6.8526   -0.0000 </r>
       <r>    8.0263    0.0000 </r>
       <r>    9.1132    0.0000 </r>
       <r>    9.5216    0.0000 </r>
       <r>   10.1384    0.0000 </r>
       <r>   11.1914    0.0000 </r>
       <r>   11.4969    0.0000 </r>
       <r>   11.8130    0.0000 </r>
       <r>   12.0767    0.0000 </r>
       <r>   12.4103    0.0000 </r>
       <r>   13.1853    0.0000 </r>
       <r>   13.3082    0.0000 </r>
      </set>
      <set comment="kpoint 84">
       <r>   -6.6616    1.0000 </r>
       <r>   -6.1998    1.0000 </r>
       <r>   -6.0476    1.0000 </r>
       <r>   -5.9546    1.0000 </r>
       <r>    0.4763    1.0000 </r>
       <r>    0.5402    1.0000 </r>
       <r>    0.6040    1.0000 </r>
       <r>    0.7110    1.0000 </r>
       <r>    0.8115    1.0000 </r>
       <r>    1.0187    1.0000 </r>
       <r>    1.0957    1.0000 </r>
       <r>    1.1752    1.0000 </r>
       <r>    1.2347    1.0000 </r>
       <r>    1.3158    1.0000 </r>
       <r>    1.4819    1.0000 </r>
       <r>    1.5387    1.0000 </r>
       <r>    1.6178    1.0000 </r>
       <r>    1.6660    1.0000 </r>
       <r>    1.6933    1.0000 </r>
       <r>    1.8422    1.0000 </r>
       <r>    1.9561    1.0000 </r>
       <r>    2.0436    1.0000 </r>
       <r>    2.1077    1.0000 </r>
       <r>    2.1300    1.0000 </r>
       <r>    2.1790    1.0000 </r>
       <r>    2.2547    1.0000 </r>
       <r>    2.2944    1.0000 </r>
       <r>    2.3621    1.0000 </r>
       <r>    2.4092    1.0000 </r>
       <r>    2.4585    1.0000 </r>
       <r>    2.5099    1.0000 </r>
       <r>    2.5659    1.0000 </r>
       <r>    2.6015    1.0000 </r>
       <r>    2.7260    1.0000 </r>
       <r>    2.8055    1.0000 </r>
       <r>    2.8398    1.0000 </r>
       <r>    2.8825    1.0000 </r>
       <r>    2.9552    1.0000 </r>
       <r>    2.9872    1.0000 </r>
       <r>    3.0558    1.0000 </r>
       <r>    3.0987    1.0000 </r>
       <r>    3.1186    1.0000 </r>
       <r>    3.2842    1.0000 </r>
       <r>    3.3519    1.0000 </r>
       <r>    3.3836    1.0000 </r>
       <r>    3.5045    1.0000 </r>
       <r>    3.6652    1.0000 </r>
       <r>    4.1302    1.0000 </r>
       <r>    4.6676    1.0000 </r>
       <r>    4.9798    1.0000 </r>
       <r>    5.2691    1.0000 </r>
       <r>    5.6820    1.0000 </r>
       <r>    6.0939    1.0000 </r>
       <r>    6.3420    1.0000 </r>
       <r>    6.5287    1.0000 </r>
       <r>    6.7268    1.0099 </r>
       <r>    6.9460   -0.0000 </r>
       <r>    8.0694    0.0000 </r>
       <r>    8.9804    0.0000 </r>
       <r>    9.5271    0.0000 </r>
       <r>   10.2360    0.0000 </r>
       <r>   11.2157    0.0000 </r>
       <r>   11.4895    0.0000 </r>
       <r>   11.7970    0.0000 </r>
       <r>   12.0901    0.0000 </r>
       <r>   12.3914    0.0000 </r>
       <r>   13.1511    0.0000 </r>
       <r>   13.3000    0.0000 </r>
      </set>
      <set comment="kpoint 85">
       <r>   -6.6506    1.0000 </r>
       <r>   -6.2049    1.0000 </r>
       <r>   -6.0537    1.0000 </r>
       <r>   -5.9560    1.0000 </r>
       <r>    0.4734    1.0000 </r>
       <r>    0.5293    1.0000 </r>
       <r>    0.6222    1.0000 </r>
       <r>    0.6945    1.0000 </r>
       <r>    0.8158    1.0000 </r>
       <r>    0.9973    1.0000 </r>
       <r>    1.1011    1.0000 </r>
       <r>    1.1778    1.0000 </r>
       <r>    1.2501    1.0000 </r>
       <r>    1.3434    1.0000 </r>
       <r>    1.4752    1.0000 </r>
       <r>    1.5285    1.0000 </r>
       <r>    1.6049    1.0000 </r>
       <r>    1.6682    1.0000 </r>
       <r>    1.6987    1.0000 </r>
       <r>    1.8500    1.0000 </r>
       <r>    1.9540    1.0000 </r>
       <r>    2.0337    1.0000 </r>
       <r>    2.1017    1.0000 </r>
       <r>    2.1429    1.0000 </r>
       <r>    2.1534    1.0000 </r>
       <r>    2.2493    1.0000 </r>
       <r>    2.3025    1.0000 </r>
       <r>    2.3602    1.0000 </r>
       <r>    2.4208    1.0000 </r>
       <r>    2.4567    1.0000 </r>
       <r>    2.5047    1.0000 </r>
       <r>    2.5761    1.0000 </r>
       <r>    2.6020    1.0000 </r>
       <r>    2.7435    1.0000 </r>
       <r>    2.8000    1.0000 </r>
       <r>    2.8325    1.0000 </r>
       <r>    2.8780    1.0000 </r>
       <r>    2.9445    1.0000 </r>
       <r>    2.9824    1.0000 </r>
       <r>    3.0494    1.0000 </r>
       <r>    3.1009    1.0000 </r>
       <r>    3.1243    1.0000 </r>
       <r>    3.2833    1.0000 </r>
       <r>    3.3485    1.0000 </r>
       <r>    3.4014    1.0000 </r>
       <r>    3.4779    1.0000 </r>
       <r>    3.6436    1.0000 </r>
       <r>    4.2234    1.0000 </r>
       <r>    4.6572    1.0000 </r>
       <r>    5.0239    1.0000 </r>
       <r>    5.2707    1.0000 </r>
       <r>    5.6606    1.0000 </r>
       <r>    6.0350    1.0000 </r>
       <r>    6.3195    1.0000 </r>
       <r>    6.5099    1.0000 </r>
       <r>    6.7177    1.0002 </r>
       <r>    7.0518    0.0000 </r>
       <r>    8.1265    0.0000 </r>
       <r>    8.8417    0.0000 </r>
       <r>    9.5125    0.0000 </r>
       <r>   10.3510    0.0000 </r>
       <r>   11.2417    0.0000 </r>
       <r>   11.4806    0.0000 </r>
       <r>   11.7749    0.0000 </r>
       <r>   12.1077    0.0000 </r>
       <r>   12.3666    0.0000 </r>
       <r>   13.0999    0.0000 </r>
       <r>   13.3323    0.0000 </r>
      </set>
      <set comment="kpoint 86">
       <r>   -6.6366    1.0000 </r>
       <r>   -6.2110    1.0000 </r>
       <r>   -6.0611    1.0000 </r>
       <r>   -5.9585    1.0000 </r>
       <r>    0.4701    1.0000 </r>
       <r>    0.5169    1.0000 </r>
       <r>    0.6406    1.0000 </r>
       <r>    0.6837    1.0000 </r>
       <r>    0.8168    1.0000 </r>
       <r>    0.9766    1.0000 </r>
       <r>    1.1085    1.0000 </r>
       <r>    1.1723    1.0000 </r>
       <r>    1.2696    1.0000 </r>
       <r>    1.3728    1.0000 </r>
       <r>    1.4688    1.0000 </r>
       <r>    1.5144    1.0000 </r>
       <r>    1.5886    1.0000 </r>
       <r>    1.6669    1.0000 </r>
       <r>    1.7167    1.0000 </r>
       <r>    1.8469    1.0000 </r>
       <r>    1.9585    1.0000 </r>
       <r>    2.0206    1.0000 </r>
       <r>    2.0874    1.0000 </r>
       <r>    2.1329    1.0000 </r>
       <r>    2.1665    1.0000 </r>
       <r>    2.2429    1.0000 </r>
       <r>    2.3130    1.0000 </r>
       <r>    2.3570    1.0000 </r>
       <r>    2.4255    1.0000 </r>
       <r>    2.4642    1.0000 </r>
       <r>    2.4951    1.0000 </r>
       <r>    2.5875    1.0000 </r>
       <r>    2.6040    1.0000 </r>
       <r>    2.7549    1.0000 </r>
       <r>    2.7978    1.0000 </r>
       <r>    2.8253    1.0000 </r>
       <r>    2.8751    1.0000 </r>
       <r>    2.9340    1.0000 </r>
       <r>    2.9763    1.0000 </r>
       <r>    3.0382    1.0000 </r>
       <r>    3.1044    1.0000 </r>
       <r>    3.1351    1.0000 </r>
       <r>    3.2731    1.0000 </r>
       <r>    3.3459    1.0000 </r>
       <r>    3.4126    1.0000 </r>
       <r>    3.4604    1.0000 </r>
       <r>    3.6352    1.0000 </r>
       <r>    4.3043    1.0000 </r>
       <r>    4.6608    1.0000 </r>
       <r>    5.0660    1.0000 </r>
       <r>    5.2760    1.0000 </r>
       <r>    5.6419    1.0000 </r>
       <r>    5.9719    1.0000 </r>
       <r>    6.2992    1.0000 </r>
       <r>    6.4875    1.0000 </r>
       <r>    6.7052    1.0000 </r>
       <r>    7.1643    0.0000 </r>
       <r>    8.1947    0.0000 </r>
       <r>    8.7041    0.0000 </r>
       <r>    9.4844    0.0000 </r>
       <r>   10.4729    0.0000 </r>
       <r>   11.2631    0.0000 </r>
       <r>   11.4698    0.0000 </r>
       <r>   11.7488    0.0000 </r>
       <r>   12.1282    0.0000 </r>
       <r>   12.3376    0.0000 </r>
       <r>   13.0270    0.0000 </r>
       <r>   13.2140    0.0000 </r>
      </set>
      <set comment="kpoint 87">
       <r>   -6.6199    1.0000 </r>
       <r>   -6.2177    1.0000 </r>
       <r>   -6.0698    1.0000 </r>
       <r>   -5.9622    1.0000 </r>
       <r>    0.4661    1.0000 </r>
       <r>    0.5040    1.0000 </r>
       <r>    0.6492    1.0000 </r>
       <r>    0.6883    1.0000 </r>
       <r>    0.8149    1.0000 </r>
       <r>    0.9576    1.0000 </r>
       <r>    1.1147    1.0000 </r>
       <r>    1.1625    1.0000 </r>
       <r>    1.2904    1.0000 </r>
       <r>    1.3987    1.0000 </r>
       <r>    1.4630    1.0000 </r>
       <r>    1.4978    1.0000 </r>
       <r>    1.5762    1.0000 </r>
       <r>    1.6629    1.0000 </r>
       <r>    1.7392    1.0000 </r>
       <r>    1.8372    1.0000 </r>
       <r>    1.9659    1.0000 </r>
       <r>    2.0071    1.0000 </r>
       <r>    2.0755    1.0000 </r>
       <r>    2.1196    1.0000 </r>
       <r>    2.1868    1.0000 </r>
       <r>    2.2381    1.0000 </r>
       <r>    2.3235    1.0000 </r>
       <r>    2.3586    1.0000 </r>
       <r>    2.4211    1.0000 </r>
       <r>    2.4771    1.0000 </r>
       <r>    2.4865    1.0000 </r>
       <r>    2.5920    1.0000 </r>
       <r>    2.6125    1.0000 </r>
       <r>    2.7547    1.0000 </r>
       <r>    2.8002    1.0000 </r>
       <r>    2.8213    1.0000 </r>
       <r>    2.8730    1.0000 </r>
       <r>    2.9240    1.0000 </r>
       <r>    2.9703    1.0000 </r>
       <r>    3.0267    1.0000 </r>
       <r>    3.1087    1.0000 </r>
       <r>    3.1472    1.0000 </r>
       <r>    3.2564    1.0000 </r>
       <r>    3.3435    1.0000 </r>
       <r>    3.3916    1.0000 </r>
       <r>    3.4829    1.0000 </r>
       <r>    3.6323    1.0000 </r>
       <r>    4.3578    1.0000 </r>
       <r>    4.6905    1.0000 </r>
       <r>    5.0989    1.0000 </r>
       <r>    5.2891    1.0000 </r>
       <r>    5.6298    1.0000 </r>
       <r>    5.9104    1.0000 </r>
       <r>    6.2765    1.0000 </r>
       <r>    6.4639    1.0000 </r>
       <r>    6.6887    1.0000 </r>
       <r>    7.2803    0.0000 </r>
       <r>    8.2703    0.0000 </r>
       <r>    8.5732    0.0000 </r>
       <r>    9.4478    0.0000 </r>
       <r>   10.5943    0.0000 </r>
       <r>   11.2753    0.0000 </r>
       <r>   11.4526    0.0000 </r>
       <r>   11.7229    0.0000 </r>
       <r>   12.1476    0.0000 </r>
       <r>   12.3073    0.0000 </r>
       <r>   12.9226    0.0000 </r>
       <r>   13.0323    0.0000 </r>
      </set>
      <set comment="kpoint 88">
       <r>   -6.6006    1.0000 </r>
       <r>   -6.2246    1.0000 </r>
       <r>   -6.0795    1.0000 </r>
       <r>   -5.9676    1.0000 </r>
       <r>    0.4611    1.0000 </r>
       <r>    0.4918    1.0000 </r>
       <r>    0.6464    1.0000 </r>
       <r>    0.7084    1.0000 </r>
       <r>    0.8116    1.0000 </r>
       <r>    0.9411    1.0000 </r>
       <r>    1.1095    1.0000 </r>
       <r>    1.1590    1.0000 </r>
       <r>    1.3090    1.0000 </r>
       <r>    1.4137    1.0000 </r>
       <r>    1.4573    1.0000 </r>
       <r>    1.4834    1.0000 </r>
       <r>    1.5726    1.0000 </r>
       <r>    1.6568    1.0000 </r>
       <r>    1.7616    1.0000 </r>
       <r>    1.8278    1.0000 </r>
       <r>    1.9702    1.0000 </r>
       <r>    1.9971    1.0000 </r>
       <r>    2.0678    1.0000 </r>
       <r>    2.1120    1.0000 </r>
       <r>    2.1951    1.0000 </r>
       <r>    2.2437    1.0000 </r>
       <r>    2.3322    1.0000 </r>
       <r>    2.3680    1.0000 </r>
       <r>    2.4126    1.0000 </r>
       <r>    2.4721    1.0000 </r>
       <r>    2.4972    1.0000 </r>
       <r>    2.5898    1.0000 </r>
       <r>    2.6251    1.0000 </r>
       <r>    2.7484    1.0000 </r>
       <r>    2.7972    1.0000 </r>
       <r>    2.8253    1.0000 </r>
       <r>    2.8704    1.0000 </r>
       <r>    2.9132    1.0000 </r>
       <r>    2.9684    1.0000 </r>
       <r>    3.0170    1.0000 </r>
       <r>    3.1129    1.0000 </r>
       <r>    3.1582    1.0000 </r>
       <r>    3.2328    1.0000 </r>
       <r>    3.3422    1.0000 </r>
       <r>    3.3695    1.0000 </r>
       <r>    3.5188    1.0000 </r>
       <r>    3.6306    1.0000 </r>
       <r>    4.3762    1.0000 </r>
       <r>    4.7509    1.0000 </r>
       <r>    5.1174    1.0000 </r>
       <r>    5.3127    1.0000 </r>
       <r>    5.6263    1.0000 </r>
       <r>    5.8552    1.0000 </r>
       <r>    6.2482    1.0000 </r>
       <r>    6.4415    1.0000 </r>
       <r>    6.6681    1.0000 </r>
       <r>    7.3975    0.0000 </r>
       <r>    8.3417    0.0000 </r>
       <r>    8.4617    0.0000 </r>
       <r>    9.4058    0.0000 </r>
       <r>   10.7096    0.0000 </r>
       <r>   11.2780    0.0000 </r>
       <r>   11.4205    0.0000 </r>
       <r>   11.7040    0.0000 </r>
       <r>   12.1552    0.0000 </r>
       <r>   12.2832    0.0000 </r>
       <r>   12.7635    0.0000 </r>
       <r>   12.8933    0.0000 </r>
      </set>
      <set comment="kpoint 89">
       <r>   -6.5789    1.0000 </r>
       <r>   -6.2316    1.0000 </r>
       <r>   -6.0900    1.0000 </r>
       <r>   -5.9747    1.0000 </r>
       <r>    0.4551    1.0000 </r>
       <r>    0.4815    1.0000 </r>
       <r>    0.6424    1.0000 </r>
       <r>    0.7302    1.0000 </r>
       <r>    0.8088    1.0000 </r>
       <r>    0.9285    1.0000 </r>
       <r>    1.0880    1.0000 </r>
       <r>    1.1667    1.0000 </r>
       <r>    1.3220    1.0000 </r>
       <r>    1.4131    1.0000 </r>
       <r>    1.4518    1.0000 </r>
       <r>    1.4754    1.0000 </r>
       <r>    1.5800    1.0000 </r>
       <r>    1.6505    1.0000 </r>
       <r>    1.7759    1.0000 </r>
       <r>    1.8283    1.0000 </r>
       <r>    1.9663    1.0000 </r>
       <r>    1.9942    1.0000 </r>
       <r>    2.0653    1.0000 </r>
       <r>    2.1093    1.0000 </r>
       <r>    2.1897    1.0000 </r>
       <r>    2.2615    1.0000 </r>
       <r>    2.3409    1.0000 </r>
       <r>    2.3803    1.0000 </r>
       <r>    2.4038    1.0000 </r>
       <r>    2.4653    1.0000 </r>
       <r>    2.5078    1.0000 </r>
       <r>    2.5863    1.0000 </r>
       <r>    2.6363    1.0000 </r>
       <r>    2.7418    1.0000 </r>
       <r>    2.7901    1.0000 </r>
       <r>    2.8306    1.0000 </r>
       <r>    2.8668    1.0000 </r>
       <r>    2.9016    1.0000 </r>
       <r>    2.9732    1.0000 </r>
       <r>    3.0092    1.0000 </r>
       <r>    3.1166    1.0000 </r>
       <r>    3.1654    1.0000 </r>
       <r>    3.2046    1.0000 </r>
       <r>    3.3387    1.0000 </r>
       <r>    3.3610    1.0000 </r>
       <r>    3.5578    1.0000 </r>
       <r>    3.6284    1.0000 </r>
       <r>    4.3681    1.0000 </r>
       <r>    4.8298    1.0000 </r>
       <r>    5.1241    1.0000 </r>
       <r>    5.3432    1.0000 </r>
       <r>    5.6306    1.0000 </r>
       <r>    5.8106    1.0000 </r>
       <r>    6.2130    1.0000 </r>
       <r>    6.4217    1.0000 </r>
       <r>    6.6431    1.0000 </r>
       <r>    7.5146    0.0000 </r>
       <r>    8.3170    0.0000 </r>
       <r>    8.4625    0.0000 </r>
       <r>    9.3607    0.0000 </r>
       <r>   10.8134    0.0000 </r>
       <r>   11.2748    0.0000 </r>
       <r>   11.3674    0.0000 </r>
       <r>   11.6959    0.0000 </r>
       <r>   12.1304    0.0000 </r>
       <r>   12.2738    0.0000 </r>
       <r>   12.5953    0.0000 </r>
       <r>   12.7924    0.0000 </r>
      </set>
      <set comment="kpoint 90">
       <r>   -6.5551    1.0000 </r>
       <r>   -6.2382    1.0000 </r>
       <r>   -6.1009    1.0000 </r>
       <r>   -5.9839    1.0000 </r>
       <r>    0.4484    1.0000 </r>
       <r>    0.4739    1.0000 </r>
       <r>    0.6399    1.0000 </r>
       <r>    0.7451    1.0000 </r>
       <r>    0.8088    1.0000 </r>
       <r>    0.9213    1.0000 </r>
       <r>    1.0582    1.0000 </r>
       <r>    1.1783    1.0000 </r>
       <r>    1.3259    1.0000 </r>
       <r>    1.4020    1.0000 </r>
       <r>    1.4476    1.0000 </r>
       <r>    1.4730    1.0000 </r>
       <r>    1.5934    1.0000 </r>
       <r>    1.6477    1.0000 </r>
       <r>    1.7775    1.0000 </r>
       <r>    1.8445    1.0000 </r>
       <r>    1.9555    1.0000 </r>
       <r>    1.9965    1.0000 </r>
       <r>    2.0681    1.0000 </r>
       <r>    2.1097    1.0000 </r>
       <r>    2.1806    1.0000 </r>
       <r>    2.2824    1.0000 </r>
       <r>    2.3501    1.0000 </r>
       <r>    2.3805    1.0000 </r>
       <r>    2.4083    1.0000 </r>
       <r>    2.4617    1.0000 </r>
       <r>    2.5099    1.0000 </r>
       <r>    2.5852    1.0000 </r>
       <r>    2.6436    1.0000 </r>
       <r>    2.7364    1.0000 </r>
       <r>    2.7833    1.0000 </r>
       <r>    2.8305    1.0000 </r>
       <r>    2.8628    1.0000 </r>
       <r>    2.8941    1.0000 </r>
       <r>    2.9826    1.0000 </r>
       <r>    3.0032    1.0000 </r>
       <r>    3.1181    1.0000 </r>
       <r>    3.1565    1.0000 </r>
       <r>    3.1888    1.0000 </r>
       <r>    3.3276    1.0000 </r>
       <r>    3.3706    1.0000 </r>
       <r>    3.5972    1.0000 </r>
       <r>    3.6257    1.0000 </r>
       <r>    4.3451    1.0000 </r>
       <r>    4.9122    1.0000 </r>
       <r>    5.1258    1.0000 </r>
       <r>    5.3750    1.0000 </r>
       <r>    5.6366    1.0000 </r>
       <r>    5.7824    1.0000 </r>
       <r>    6.1715    1.0000 </r>
       <r>    6.4046    1.0000 </r>
       <r>    6.6137    1.0000 </r>
       <r>    7.6304    0.0000 </r>
       <r>    8.2325    0.0000 </r>
       <r>    8.5402    0.0000 </r>
       <r>    9.3135    0.0000 </r>
       <r>   10.8997    0.0000 </r>
       <r>   11.2700    0.0000 </r>
       <r>   11.2977    0.0000 </r>
       <r>   11.6966    0.0000 </r>
       <r>   12.0633    0.0000 </r>
       <r>   12.2577    0.0000 </r>
       <r>   12.4769    0.0000 </r>
       <r>   12.7036    0.0000 </r>
      </set>
      <set comment="kpoint 91">
       <r>   -6.5297    1.0000 </r>
       <r>   -6.2442    1.0000 </r>
       <r>   -6.1121    1.0000 </r>
       <r>   -5.9952    1.0000 </r>
       <r>    0.4421    1.0000 </r>
       <r>    0.4688    1.0000 </r>
       <r>    0.6389    1.0000 </r>
       <r>    0.7491    1.0000 </r>
       <r>    0.8113    1.0000 </r>
       <r>    0.9196    1.0000 </r>
       <r>    1.0282    1.0000 </r>
       <r>    1.1890    1.0000 </r>
       <r>    1.3200    1.0000 </r>
       <r>    1.3878    1.0000 </r>
       <r>    1.4430    1.0000 </r>
       <r>    1.4782    1.0000 </r>
       <r>    1.6032    1.0000 </r>
       <r>    1.6505    1.0000 </r>
       <r>    1.7781    1.0000 </r>
       <r>    1.8665    1.0000 </r>
       <r>    1.9441    1.0000 </r>
       <r>    2.0001    1.0000 </r>
       <r>    2.0743    1.0000 </r>
       <r>    2.1108    1.0000 </r>
       <r>    2.1739    1.0000 </r>
       <r>    2.3003    1.0000 </r>
       <r>    2.3514    1.0000 </r>
       <r>    2.3810    1.0000 </r>
       <r>    2.4211    1.0000 </r>
       <r>    2.4604    1.0000 </r>
       <r>    2.5050    1.0000 </r>
       <r>    2.5876    1.0000 </r>
       <r>    2.6456    1.0000 </r>
       <r>    2.7309    1.0000 </r>
       <r>    2.7789    1.0000 </r>
       <r>    2.8241    1.0000 </r>
       <r>    2.8581    1.0000 </r>
       <r>    2.8963    1.0000 </r>
       <r>    2.9894    1.0000 </r>
       <r>    3.0026    1.0000 </r>
       <r>    3.1075    1.0000 </r>
       <r>    3.1396    1.0000 </r>
       <r>    3.1909    1.0000 </r>
       <r>    3.3133    1.0000 </r>
       <r>    3.3903    1.0000 </r>
       <r>    3.6168    1.0000 </r>
       <r>    3.6420    1.0000 </r>
       <r>    4.3140    1.0000 </r>
       <r>    4.9870    1.0000 </r>
       <r>    5.1295    1.0000 </r>
       <r>    5.4054    1.0000 </r>
       <r>    5.6352    1.0000 </r>
       <r>    5.7758    1.0000 </r>
       <r>    6.1262    1.0000 </r>
       <r>    6.3895    1.0000 </r>
       <r>    6.5800    1.0000 </r>
       <r>    7.7441    0.0000 </r>
       <r>    8.1635    0.0000 </r>
       <r>    8.6195    0.0000 </r>
       <r>    9.2651    0.0000 </r>
       <r>   10.9602    0.0000 </r>
       <r>   11.2109    0.0000 </r>
       <r>   11.2799    0.0000 </r>
       <r>   11.7017    0.0000 </r>
       <r>   11.9543    0.0000 </r>
       <r>   12.2078    0.0000 </r>
       <r>   12.4377    0.0000 </r>
       <r>   12.6257    0.0000 </r>
      </set>
      <set comment="kpoint 92">
       <r>   -6.5029    1.0000 </r>
       <r>   -6.2493    1.0000 </r>
       <r>   -6.1233    1.0000 </r>
       <r>   -6.0087    1.0000 </r>
       <r>    0.4371    1.0000 </r>
       <r>    0.4663    1.0000 </r>
       <r>    0.6387    1.0000 </r>
       <r>    0.7454    1.0000 </r>
       <r>    0.8109    1.0000 </r>
       <r>    0.9146    1.0000 </r>
       <r>    1.0107    1.0000 </r>
       <r>    1.1969    1.0000 </r>
       <r>    1.3081    1.0000 </r>
       <r>    1.3724    1.0000 </r>
       <r>    1.4399    1.0000 </r>
       <r>    1.4889    1.0000 </r>
       <r>    1.6069    1.0000 </r>
       <r>    1.6548    1.0000 </r>
       <r>    1.7866    1.0000 </r>
       <r>    1.8833    1.0000 </r>
       <r>    1.9401    1.0000 </r>
       <r>    2.0038    1.0000 </r>
       <r>    2.0792    1.0000 </r>
       <r>    2.1124    1.0000 </r>
       <r>    2.1731    1.0000 </r>
       <r>    2.3043    1.0000 </r>
       <r>    2.3501    1.0000 </r>
       <r>    2.3931    1.0000 </r>
       <r>    2.4310    1.0000 </r>
       <r>    2.4568    1.0000 </r>
       <r>    2.5031    1.0000 </r>
       <r>    2.5909    1.0000 </r>
       <r>    2.6425    1.0000 </r>
       <r>    2.7229    1.0000 </r>
       <r>    2.7764    1.0000 </r>
       <r>    2.8151    1.0000 </r>
       <r>    2.8572    1.0000 </r>
       <r>    2.9050    1.0000 </r>
       <r>    2.9864    1.0000 </r>
       <r>    3.0118    1.0000 </r>
       <r>    3.0796    1.0000 </r>
       <r>    3.1380    1.0000 </r>
       <r>    3.1950    1.0000 </r>
       <r>    3.2969    1.0000 </r>
       <r>    3.4163    1.0000 </r>
       <r>    3.6114    1.0000 </r>
       <r>    3.6820    1.0000 </r>
       <r>    4.2789    1.0000 </r>
       <r>    5.0459    1.0000 </r>
       <r>    5.1413    1.0000 </r>
       <r>    5.4352    1.0000 </r>
       <r>    5.6242    1.0000 </r>
       <r>    5.7854    1.0000 </r>
       <r>    6.0807    1.0000 </r>
       <r>    6.3751    1.0000 </r>
       <r>    6.5430    1.0000 </r>
       <r>    7.8550    0.0000 </r>
       <r>    8.1188    0.0000 </r>
       <r>    8.6910    0.0000 </r>
       <r>    9.2159    0.0000 </r>
       <r>   10.9861    0.0000 </r>
       <r>   11.1315    0.0000 </r>
       <r>   11.2972    0.0000 </r>
       <r>   11.7080    0.0000 </r>
       <r>   11.8186    0.0000 </r>
       <r>   12.1506    0.0000 </r>
       <r>   12.4333    0.0000 </r>
       <r>   12.5602    0.0000 </r>
      </set>
      <set comment="kpoint 93">
       <r>   -6.4753    1.0000 </r>
       <r>   -6.2531    1.0000 </r>
       <r>   -6.1342    1.0000 </r>
       <r>   -6.0244    1.0000 </r>
       <r>    0.4339    1.0000 </r>
       <r>    0.4664    1.0000 </r>
       <r>    0.6381    1.0000 </r>
       <r>    0.7383    1.0000 </r>
       <r>    0.8052    1.0000 </r>
       <r>    0.8938    1.0000 </r>
       <r>    1.0175    1.0000 </r>
       <r>    1.2009    1.0000 </r>
       <r>    1.2945    1.0000 </r>
       <r>    1.3570    1.0000 </r>
       <r>    1.4397    1.0000 </r>
       <r>    1.5008    1.0000 </r>
       <r>    1.6081    1.0000 </r>
       <r>    1.6557    1.0000 </r>
       <r>    1.8037    1.0000 </r>
       <r>    1.8873    1.0000 </r>
       <r>    1.9515    1.0000 </r>
       <r>    2.0077    1.0000 </r>
       <r>    2.0788    1.0000 </r>
       <r>    2.1157    1.0000 </r>
       <r>    2.1784    1.0000 </r>
       <r>    2.2902    1.0000 </r>
       <r>    2.3553    1.0000 </r>
       <r>    2.4069    1.0000 </r>
       <r>    2.4370    1.0000 </r>
       <r>    2.4515    1.0000 </r>
       <r>    2.5108    1.0000 </r>
       <r>    2.5934    1.0000 </r>
       <r>    2.6362    1.0000 </r>
       <r>    2.7117    1.0000 </r>
       <r>    2.7713    1.0000 </r>
       <r>    2.8097    1.0000 </r>
       <r>    2.8620    1.0000 </r>
       <r>    2.9157    1.0000 </r>
       <r>    2.9804    1.0000 </r>
       <r>    3.0212    1.0000 </r>
       <r>    3.0527    1.0000 </r>
       <r>    3.1400    1.0000 </r>
       <r>    3.1981    1.0000 </r>
       <r>    3.2786    1.0000 </r>
       <r>    3.4463    1.0000 </r>
       <r>    3.6039    1.0000 </r>
       <r>    3.7232    1.0000 </r>
       <r>    4.2420    1.0000 </r>
       <r>    5.0849    1.0000 </r>
       <r>    5.1644    1.0000 </r>
       <r>    5.4648    1.0000 </r>
       <r>    5.6092    1.0000 </r>
       <r>    5.7973    1.0000 </r>
       <r>    6.0401    1.0000 </r>
       <r>    6.3600    1.0000 </r>
       <r>    6.5045    1.0000 </r>
       <r>    7.9619    0.0000 </r>
       <r>    8.1021    0.0000 </r>
       <r>    8.7492    0.0000 </r>
       <r>    9.1660    0.0000 </r>
       <r>   10.9691    0.0000 </r>
       <r>   11.0721    0.0000 </r>
       <r>   11.3247    0.0000 </r>
       <r>   11.6723    0.0000 </r>
       <r>   11.7215    0.0000 </r>
       <r>   12.1008    0.0000 </r>
       <r>   12.4230    0.0000 </r>
       <r>   12.5076    0.0000 </r>
      </set>
      <set comment="kpoint 94">
       <r>   -6.4477    1.0000 </r>
       <r>   -6.2553    1.0000 </r>
       <r>   -6.1446    1.0000 </r>
       <r>   -6.0421    1.0000 </r>
       <r>    0.4326    1.0000 </r>
       <r>    0.4694    1.0000 </r>
       <r>    0.6362    1.0000 </r>
       <r>    0.7296    1.0000 </r>
       <r>    0.7944    1.0000 </r>
       <r>    0.8652    1.0000 </r>
       <r>    1.0390    1.0000 </r>
       <r>    1.2015    1.0000 </r>
       <r>    1.2815    1.0000 </r>
       <r>    1.3443    1.0000 </r>
       <r>    1.4419    1.0000 </r>
       <r>    1.5101    1.0000 </r>
       <r>    1.6091    1.0000 </r>
       <r>    1.6546    1.0000 </r>
       <r>    1.8236    1.0000 </r>
       <r>    1.8871    1.0000 </r>
       <r>    1.9712    1.0000 </r>
       <r>    2.0129    1.0000 </r>
       <r>    2.0750    1.0000 </r>
       <r>    2.1187    1.0000 </r>
       <r>    2.1872    1.0000 </r>
       <r>    2.2703    1.0000 </r>
       <r>    2.3504    1.0000 </r>
       <r>    2.4207    1.0000 </r>
       <r>    2.4413    1.0000 </r>
       <r>    2.4534    1.0000 </r>
       <r>    2.5227    1.0000 </r>
       <r>    2.5950    1.0000 </r>
       <r>    2.6304    1.0000 </r>
       <r>    2.6986    1.0000 </r>
       <r>    2.7602    1.0000 </r>
       <r>    2.8102    1.0000 </r>
       <r>    2.8715    1.0000 </r>
       <r>    2.9254    1.0000 </r>
       <r>    2.9726    1.0000 </r>
       <r>    3.0196    1.0000 </r>
       <r>    3.0427    1.0000 </r>
       <r>    3.1415    1.0000 </r>
       <r>    3.1993    1.0000 </r>
       <r>    3.2593    1.0000 </r>
       <r>    3.4780    1.0000 </r>
       <r>    3.5956    1.0000 </r>
       <r>    3.7641    1.0000 </r>
       <r>    4.2055    1.0000 </r>
       <r>    5.1118    1.0000 </r>
       <r>    5.1924    1.0000 </r>
       <r>    5.4915    1.0000 </r>
       <r>    5.5938    1.0000 </r>
       <r>    5.8012    1.0000 </r>
       <r>    6.0102    1.0000 </r>
       <r>    6.3425    1.0000 </r>
       <r>    6.4675    1.0000 </r>
       <r>    8.0604    0.0000 </r>
       <r>    8.1180    0.0000 </r>
       <r>    8.7887    0.0000 </r>
       <r>    9.1156    0.0000 </r>
       <r>   10.9181    0.0000 </r>
       <r>   11.0389    0.0000 </r>
       <r>   11.3526    0.0000 </r>
       <r>   11.5453    0.0000 </r>
       <r>   11.7276    0.0000 </r>
       <r>   12.0586    0.0000 </r>
       <r>   12.3966    0.0000 </r>
       <r>   12.4574    0.0000 </r>
      </set>
      <set comment="kpoint 95">
       <r>   -6.4208    1.0000 </r>
       <r>   -6.2553    1.0000 </r>
       <r>   -6.1542    1.0000 </r>
       <r>   -6.0617    1.0000 </r>
       <r>    0.4331    1.0000 </r>
       <r>    0.4756    1.0000 </r>
       <r>    0.6320    1.0000 </r>
       <r>    0.7188    1.0000 </r>
       <r>    0.7795    1.0000 </r>
       <r>    0.8407    1.0000 </r>
       <r>    1.0626    1.0000 </r>
       <r>    1.1996    1.0000 </r>
       <r>    1.2696    1.0000 </r>
       <r>    1.3373    1.0000 </r>
       <r>    1.4453    1.0000 </r>
       <r>    1.5141    1.0000 </r>
       <r>    1.6111    1.0000 </r>
       <r>    1.6543    1.0000 </r>
       <r>    1.8378    1.0000 </r>
       <r>    1.8948    1.0000 </r>
       <r>    1.9898    1.0000 </r>
       <r>    2.0206    1.0000 </r>
       <r>    2.0718    1.0000 </r>
       <r>    2.1195    1.0000 </r>
       <r>    2.1945    1.0000 </r>
       <r>    2.2518    1.0000 </r>
       <r>    2.3319    1.0000 </r>
       <r>    2.4369    1.0000 </r>
       <r>    2.4481    1.0000 </r>
       <r>    2.4565    1.0000 </r>
       <r>    2.5350    1.0000 </r>
       <r>    2.5951    1.0000 </r>
       <r>    2.6303    1.0000 </r>
       <r>    2.6853    1.0000 </r>
       <r>    2.7443    1.0000 </r>
       <r>    2.8135    1.0000 </r>
       <r>    2.8833    1.0000 </r>
       <r>    2.9296    1.0000 </r>
       <r>    2.9642    1.0000 </r>
       <r>    3.0115    1.0000 </r>
       <r>    3.0487    1.0000 </r>
       <r>    3.1414    1.0000 </r>
       <r>    3.1980    1.0000 </r>
       <r>    3.2407    1.0000 </r>
       <r>    3.5094    1.0000 </r>
       <r>    3.5874    1.0000 </r>
       <r>    3.8039    1.0000 </r>
       <r>    4.1708    1.0000 </r>
       <r>    5.1366    1.0000 </r>
       <r>    5.2179    1.0000 </r>
       <r>    5.5087    1.0000 </r>
       <r>    5.5791    1.0000 </r>
       <r>    5.7951    1.0000 </r>
       <r>    5.9947    1.0000 </r>
       <r>    6.3205    1.0000 </r>
       <r>    6.4357    1.0000 </r>
       <r>    8.1306    0.0000 </r>
       <r>    8.1845    0.0000 </r>
       <r>    8.8050    0.0000 </r>
       <r>    9.0645    0.0000 </r>
       <r>   10.8645    0.0000 </r>
       <r>   11.0123    0.0000 </r>
       <r>   11.3684    0.0000 </r>
       <r>   11.4411    0.0000 </r>
       <r>   11.7370    0.0000 </r>
       <r>   12.0238    0.0000 </r>
       <r>   12.3574    0.0000 </r>
       <r>   12.4088    0.0000 </r>
      </set>
      <set comment="kpoint 96">
       <r>   -6.3962    1.0000 </r>
       <r>   -6.2524    1.0000 </r>
       <r>   -6.1628    1.0000 </r>
       <r>   -6.0827    1.0000 </r>
       <r>    0.4348    1.0000 </r>
       <r>    0.4850    1.0000 </r>
       <r>    0.6254    1.0000 </r>
       <r>    0.7032    1.0000 </r>
       <r>    0.7649    1.0000 </r>
       <r>    0.8246    1.0000 </r>
       <r>    1.0820    1.0000 </r>
       <r>    1.1966    1.0000 </r>
       <r>    1.2590    1.0000 </r>
       <r>    1.3385    1.0000 </r>
       <r>    1.4485    1.0000 </r>
       <r>    1.5116    1.0000 </r>
       <r>    1.6139    1.0000 </r>
       <r>    1.6567    1.0000 </r>
       <r>    1.8431    1.0000 </r>
       <r>    1.9129    1.0000 </r>
       <r>    2.0036    1.0000 </r>
       <r>    2.0292    1.0000 </r>
       <r>    2.0720    1.0000 </r>
       <r>    2.1184    1.0000 </r>
       <r>    2.1954    1.0000 </r>
       <r>    2.2388    1.0000 </r>
       <r>    2.3092    1.0000 </r>
       <r>    2.4493    1.0000 </r>
       <r>    2.4564    1.0000 </r>
       <r>    2.4586    1.0000 </r>
       <r>    2.5475    1.0000 </r>
       <r>    2.5945    1.0000 </r>
       <r>    2.6376    1.0000 </r>
       <r>    2.6735    1.0000 </r>
       <r>    2.7257    1.0000 </r>
       <r>    2.8175    1.0000 </r>
       <r>    2.8933    1.0000 </r>
       <r>    2.9245    1.0000 </r>
       <r>    2.9613    1.0000 </r>
       <r>    3.0107    1.0000 </r>
       <r>    3.0548    1.0000 </r>
       <r>    3.1397    1.0000 </r>
       <r>    3.1935    1.0000 </r>
       <r>    3.2256    1.0000 </r>
       <r>    3.5376    1.0000 </r>
       <r>    3.5807    1.0000 </r>
       <r>    3.8410    1.0000 </r>
       <r>    4.1396    1.0000 </r>
       <r>    5.1632    1.0000 </r>
       <r>    5.2400    1.0000 </r>
       <r>    5.5095    1.0000 </r>
       <r>    5.5649    1.0000 </r>
       <r>    5.7860    1.0000 </r>
       <r>    5.9921    1.0000 </r>
       <r>    6.2933    1.0000 </r>
       <r>    6.4118    1.0000 </r>
       <r>    8.1932    0.0000 </r>
       <r>    8.2763    0.0000 </r>
       <r>    8.7960    0.0000 </r>
       <r>    9.0122    0.0000 </r>
       <r>   10.8233    0.0000 </r>
       <r>   10.9839    0.0000 </r>
       <r>   11.3280    0.0000 </r>
       <r>   11.4085    0.0000 </r>
       <r>   11.7472    0.0000 </r>
       <r>   11.9968    0.0000 </r>
       <r>   12.3033    0.0000 </r>
       <r>   12.3676    0.0000 </r>
      </set>
      <set comment="kpoint 97">
       <r>   -6.3753    1.0000 </r>
       <r>   -6.2455    1.0000 </r>
       <r>   -6.1706    1.0000 </r>
       <r>   -6.1044    1.0000 </r>
       <r>    0.4374    1.0000 </r>
       <r>    0.4974    1.0000 </r>
       <r>    0.6165    1.0000 </r>
       <r>    0.6819    1.0000 </r>
       <r>    0.7561    1.0000 </r>
       <r>    0.8147    1.0000 </r>
       <r>    1.0948    1.0000 </r>
       <r>    1.1932    1.0000 </r>
       <r>    1.2499    1.0000 </r>
       <r>    1.3485    1.0000 </r>
       <r>    1.4506    1.0000 </r>
       <r>    1.5037    1.0000 </r>
       <r>    1.6164    1.0000 </r>
       <r>    1.6619    1.0000 </r>
       <r>    1.8444    1.0000 </r>
       <r>    1.9344    1.0000 </r>
       <r>    2.0139    1.0000 </r>
       <r>    2.0354    1.0000 </r>
       <r>    2.0757    1.0000 </r>
       <r>    2.1164    1.0000 </r>
       <r>    2.1903    1.0000 </r>
       <r>    2.2294    1.0000 </r>
       <r>    2.2904    1.0000 </r>
       <r>    2.4393    1.0000 </r>
       <r>    2.4644    1.0000 </r>
       <r>    2.4770    1.0000 </r>
       <r>    2.5599    1.0000 </r>
       <r>    2.5951    1.0000 </r>
       <r>    2.6464    1.0000 </r>
       <r>    2.6645    1.0000 </r>
       <r>    2.7075    1.0000 </r>
       <r>    2.8214    1.0000 </r>
       <r>    2.8920    1.0000 </r>
       <r>    2.9237    1.0000 </r>
       <r>    2.9623    1.0000 </r>
       <r>    3.0144    1.0000 </r>
       <r>    3.0577    1.0000 </r>
       <r>    3.1370    1.0000 </r>
       <r>    3.1869    1.0000 </r>
       <r>    3.2155    1.0000 </r>
       <r>    3.5570    1.0000 </r>
       <r>    3.5799    1.0000 </r>
       <r>    3.8734    1.0000 </r>
       <r>    4.1132    1.0000 </r>
       <r>    5.1917    1.0000 </r>
       <r>    5.2593    1.0000 </r>
       <r>    5.4950    1.0000 </r>
       <r>    5.5477    1.0000 </r>
       <r>    5.7813    1.0000 </r>
       <r>    5.9986    1.0000 </r>
       <r>    6.2631    1.0000 </r>
       <r>    6.3958    1.0000 </r>
       <r>    8.2685    0.0000 </r>
       <r>    8.3660    0.0000 </r>
       <r>    8.7631    0.0000 </r>
       <r>    8.9577    0.0000 </r>
       <r>   10.7970    0.0000 </r>
       <r>   10.9540    0.0000 </r>
       <r>   11.2692    0.0000 </r>
       <r>   11.4116    0.0000 </r>
       <r>   11.7573    0.0000 </r>
       <r>   11.9781    0.0000 </r>
       <r>   12.2410    0.0000 </r>
       <r>   12.3385    0.0000 </r>
      </set>
      <set comment="kpoint 98">
       <r>   -6.3598    1.0000 </r>
       <r>   -6.2340    1.0000 </r>
       <r>   -6.1781    1.0000 </r>
       <r>   -6.1250    1.0000 </r>
       <r>    0.4401    1.0000 </r>
       <r>    0.5118    1.0000 </r>
       <r>    0.6059    1.0000 </r>
       <r>    0.6605    1.0000 </r>
       <r>    0.7526    1.0000 </r>
       <r>    0.8086    1.0000 </r>
       <r>    1.1019    1.0000 </r>
       <r>    1.1900    1.0000 </r>
       <r>    1.2430    1.0000 </r>
       <r>    1.3645    1.0000 </r>
       <r>    1.4502    1.0000 </r>
       <r>    1.4932    1.0000 </r>
       <r>    1.6178    1.0000 </r>
       <r>    1.6684    1.0000 </r>
       <r>    1.8447    1.0000 </r>
       <r>    1.9537    1.0000 </r>
       <r>    2.0196    1.0000 </r>
       <r>    2.0423    1.0000 </r>
       <r>    2.0788    1.0000 </r>
       <r>    2.1131    1.0000 </r>
       <r>    2.1858    1.0000 </r>
       <r>    2.2178    1.0000 </r>
       <r>    2.2808    1.0000 </r>
       <r>    2.4243    1.0000 </r>
       <r>    2.4710    1.0000 </r>
       <r>    2.4970    1.0000 </r>
       <r>    2.5702    1.0000 </r>
       <r>    2.5976    1.0000 </r>
       <r>    2.6448    1.0000 </r>
       <r>    2.6601    1.0000 </r>
       <r>    2.6973    1.0000 </r>
       <r>    2.8250    1.0000 </r>
       <r>    2.8806    1.0000 </r>
       <r>    2.9325    1.0000 </r>
       <r>    2.9635    1.0000 </r>
       <r>    3.0163    1.0000 </r>
       <r>    3.0581    1.0000 </r>
       <r>    3.1345    1.0000 </r>
       <r>    3.1817    1.0000 </r>
       <r>    3.2089    1.0000 </r>
       <r>    3.5601    1.0000 </r>
       <r>    3.5914    1.0000 </r>
       <r>    3.8990    1.0000 </r>
       <r>    4.0930    1.0000 </r>
       <r>    5.2199    1.0000 </r>
       <r>    5.2754    1.0000 </r>
       <r>    5.4743    1.0000 </r>
       <r>    5.5266    1.0000 </r>
       <r>    5.7815    1.0000 </r>
       <r>    6.0100    1.0000 </r>
       <r>    6.2344    1.0000 </r>
       <r>    6.3859    1.0000 </r>
       <r>    8.3531    0.0000 </r>
       <r>    8.4471    0.0000 </r>
       <r>    8.7107    0.0000 </r>
       <r>    8.9023    0.0000 </r>
       <r>   10.7834    0.0000 </r>
       <r>   10.9270    0.0000 </r>
       <r>   11.2296    0.0000 </r>
       <r>   11.4129    0.0000 </r>
       <r>   11.7663    0.0000 </r>
       <r>   11.9671    0.0000 </r>
       <r>   12.1842    0.0000 </r>
       <r>   12.3195    0.0000 </r>
      </set>
      <set comment="kpoint 99">
       <r>   -6.3507    1.0000 </r>
       <r>   -6.2187    1.0000 </r>
       <r>   -6.1871    1.0000 </r>
       <r>   -6.1412    1.0000 </r>
       <r>    0.4422    1.0000 </r>
       <r>    0.5256    1.0000 </r>
       <r>    0.5946    1.0000 </r>
       <r>    0.6452    1.0000 </r>
       <r>    0.7515    1.0000 </r>
       <r>    0.8052    1.0000 </r>
       <r>    1.1051    1.0000 </r>
       <r>    1.1876    1.0000 </r>
       <r>    1.2386    1.0000 </r>
       <r>    1.3811    1.0000 </r>
       <r>    1.4468    1.0000 </r>
       <r>    1.4843    1.0000 </r>
       <r>    1.6183    1.0000 </r>
       <r>    1.6737    1.0000 </r>
       <r>    1.8449    1.0000 </r>
       <r>    1.9667    1.0000 </r>
       <r>    2.0211    1.0000 </r>
       <r>    2.0521    1.0000 </r>
       <r>    2.0791    1.0000 </r>
       <r>    2.1081    1.0000 </r>
       <r>    2.1848    1.0000 </r>
       <r>    2.2063    1.0000 </r>
       <r>    2.2784    1.0000 </r>
       <r>    2.4117    1.0000 </r>
       <r>    2.4750    1.0000 </r>
       <r>    2.5141    1.0000 </r>
       <r>    2.5768    1.0000 </r>
       <r>    2.6018    1.0000 </r>
       <r>    2.6336    1.0000 </r>
       <r>    2.6560    1.0000 </r>
       <r>    2.6985    1.0000 </r>
       <r>    2.8276    1.0000 </r>
       <r>    2.8707    1.0000 </r>
       <r>    2.9412    1.0000 </r>
       <r>    2.9650    1.0000 </r>
       <r>    3.0134    1.0000 </r>
       <r>    3.0588    1.0000 </r>
       <r>    3.1330    1.0000 </r>
       <r>    3.1797    1.0000 </r>
       <r>    3.2044    1.0000 </r>
       <r>    3.5584    1.0000 </r>
       <r>    3.6024    1.0000 </r>
       <r>    3.9154    1.0000 </r>
       <r>    4.0803    1.0000 </r>
       <r>    5.2435    1.0000 </r>
       <r>    5.2855    1.0000 </r>
       <r>    5.4570    1.0000 </r>
       <r>    5.5074    1.0000 </r>
       <r>    5.7833    1.0000 </r>
       <r>    6.0213    1.0000 </r>
       <r>    6.2127    1.0000 </r>
       <r>    6.3805    1.0000 </r>
       <r>    8.4377    0.0000 </r>
       <r>    8.5097    0.0000 </r>
       <r>    8.6471    0.0000 </r>
       <r>    8.8540    0.0000 </r>
       <r>   10.7778    0.0000 </r>
       <r>   10.9083    0.0000 </r>
       <r>   11.2080    0.0000 </r>
       <r>   11.4121    0.0000 </r>
       <r>   11.7726    0.0000 </r>
       <r>   11.9621    0.0000 </r>
       <r>   12.1442    0.0000 </r>
       <r>   12.3059    0.0000 </r>
      </set>
      <set comment="kpoint 100">
       <r>   -6.3477    1.0000 </r>
       <r>   -6.2057    1.0000 </r>
       <r>   -6.1972    1.0000 </r>
       <r>   -6.1474    1.0000 </r>
       <r>    0.4430    1.0000 </r>
       <r>    0.5324    1.0000 </r>
       <r>    0.5887    1.0000 </r>
       <r>    0.6398    1.0000 </r>
       <r>    0.7513    1.0000 </r>
       <r>    0.8041    1.0000 </r>
       <r>    1.1059    1.0000 </r>
       <r>    1.1867    1.0000 </r>
       <r>    1.2372    1.0000 </r>
       <r>    1.3891    1.0000 </r>
       <r>    1.4438    1.0000 </r>
       <r>    1.4810    1.0000 </r>
       <r>    1.6185    1.0000 </r>
       <r>    1.6757    1.0000 </r>
       <r>    1.8450    1.0000 </r>
       <r>    1.9711    1.0000 </r>
       <r>    2.0214    1.0000 </r>
       <r>    2.0576    1.0000 </r>
       <r>    2.0781    1.0000 </r>
       <r>    2.1054    1.0000 </r>
       <r>    2.1849    1.0000 </r>
       <r>    2.2017    1.0000 </r>
       <r>    2.2783    1.0000 </r>
       <r>    2.4068    1.0000 </r>
       <r>    2.4763    1.0000 </r>
       <r>    2.5213    1.0000 </r>
       <r>    2.5788    1.0000 </r>
       <r>    2.6051    1.0000 </r>
       <r>    2.6260    1.0000 </r>
       <r>    2.6542    1.0000 </r>
       <r>    2.7005    1.0000 </r>
       <r>    2.8285    1.0000 </r>
       <r>    2.8670    1.0000 </r>
       <r>    2.9446    1.0000 </r>
       <r>    2.9660    1.0000 </r>
       <r>    3.0106    1.0000 </r>
       <r>    3.0595    1.0000 </r>
       <r>    3.1324    1.0000 </r>
       <r>    3.1794    1.0000 </r>
       <r>    3.2026    1.0000 </r>
       <r>    3.5576    1.0000 </r>
       <r>    3.6065    1.0000 </r>
       <r>    3.9211    1.0000 </r>
       <r>    4.0759    1.0000 </r>
       <r>    5.2540    1.0000 </r>
       <r>    5.2882    1.0000 </r>
       <r>    5.4505    1.0000 </r>
       <r>    5.4993    1.0000 </r>
       <r>    5.7841    1.0000 </r>
       <r>    6.0262    1.0000 </r>
       <r>    6.2044    1.0000 </r>
       <r>    6.3787    1.0000 </r>
       <r>    8.4893    0.0000 </r>
       <r>    8.5335    0.0000 </r>
       <r>    8.6048    0.0000 </r>
       <r>    8.8327    0.0000 </r>
       <r>   10.7764    0.0000 </r>
       <r>   10.9016    0.0000 </r>
       <r>   11.2013    0.0000 </r>
       <r>   11.4115    0.0000 </r>
       <r>   11.7750    0.0000 </r>
       <r>   11.9609    0.0000 </r>
       <r>   12.1299    0.0000 </r>
       <r>   12.3018    0.0000 </r>
      </set>
      <set comment="kpoint 101">
       <r>   -6.1896    1.0000 </r>
       <r>   -6.0752    1.0000 </r>
       <r>   -6.0173    1.0000 </r>
       <r>   -5.9738    1.0000 </r>
       <r>    0.6414    1.0000 </r>
       <r>    0.6888    1.0000 </r>
       <r>    0.7761    1.0000 </r>
       <r>    0.8220    1.0000 </r>
       <r>    0.8332    1.0000 </r>
       <r>    0.9290    1.0000 </r>
       <r>    1.1483    1.0000 </r>
       <r>    1.2168    1.0000 </r>
       <r>    1.3705    1.0000 </r>
       <r>    1.4307    1.0000 </r>
       <r>    1.5411    1.0000 </r>
       <r>    1.5888    1.0000 </r>
       <r>    1.7165    1.0000 </r>
       <r>    1.7245    1.0000 </r>
       <r>    1.8743    1.0000 </r>
       <r>    1.9114    1.0000 </r>
       <r>    1.9408    1.0000 </r>
       <r>    2.0309    1.0000 </r>
       <r>    2.0633    1.0000 </r>
       <r>    2.1328    1.0000 </r>
       <r>    2.1777    1.0000 </r>
       <r>    2.2317    1.0000 </r>
       <r>    2.2925    1.0000 </r>
       <r>    2.3411    1.0000 </r>
       <r>    2.4491    1.0000 </r>
       <r>    2.4791    1.0000 </r>
       <r>    2.5509    1.0000 </r>
       <r>    2.5923    1.0000 </r>
       <r>    2.6626    1.0000 </r>
       <r>    2.6791    1.0000 </r>
       <r>    2.6964    1.0000 </r>
       <r>    2.7183    1.0000 </r>
       <r>    2.8259    1.0000 </r>
       <r>    2.8939    1.0000 </r>
       <r>    2.9181    1.0000 </r>
       <r>    2.9948    1.0000 </r>
       <r>    3.0681    1.0000 </r>
       <r>    3.0883    1.0000 </r>
       <r>    3.1952    1.0000 </r>
       <r>    3.2420    1.0000 </r>
       <r>    3.2743    1.0000 </r>
       <r>    3.2931    1.0000 </r>
       <r>    3.6521    1.0000 </r>
       <r>    3.6699    1.0000 </r>
       <r>    4.6805    1.0000 </r>
       <r>    4.7195    1.0000 </r>
       <r>    4.7686    1.0000 </r>
       <r>    4.7857    1.0000 </r>
       <r>    5.2598    1.0000 </r>
       <r>    5.3530    1.0000 </r>
       <r>    5.7584    1.0000 </r>
       <r>    5.8447    1.0000 </r>
       <r>    9.1075    0.0000 </r>
       <r>    9.2901    0.0000 </r>
       <r>    9.5572    0.0000 </r>
       <r>    9.5954    0.0000 </r>
       <r>    9.8166    0.0000 </r>
       <r>   10.1433    0.0000 </r>
       <r>   11.1195    0.0000 </r>
       <r>   11.2096    0.0000 </r>
       <r>   11.3731    0.0000 </r>
       <r>   11.7933    0.0000 </r>
       <r>   12.1331    0.0000 </r>
       <r>   12.9327    0.0000 </r>
      </set>
      <set comment="kpoint 102">
       <r>   -6.1959    1.0000 </r>
       <r>   -6.0764    1.0000 </r>
       <r>   -6.0141    1.0000 </r>
       <r>   -5.9739    1.0000 </r>
       <r>    0.6403    1.0000 </r>
       <r>    0.6881    1.0000 </r>
       <r>    0.7740    1.0000 </r>
       <r>    0.8163    1.0000 </r>
       <r>    0.8428    1.0000 </r>
       <r>    0.9313    1.0000 </r>
       <r>    1.1455    1.0000 </r>
       <r>    1.2163    1.0000 </r>
       <r>    1.3693    1.0000 </r>
       <r>    1.4304    1.0000 </r>
       <r>    1.5310    1.0000 </r>
       <r>    1.6005    1.0000 </r>
       <r>    1.7020    1.0000 </r>
       <r>    1.7374    1.0000 </r>
       <r>    1.8726    1.0000 </r>
       <r>    1.9087    1.0000 </r>
       <r>    1.9366    1.0000 </r>
       <r>    2.0301    1.0000 </r>
       <r>    2.0644    1.0000 </r>
       <r>    2.1333    1.0000 </r>
       <r>    2.1852    1.0000 </r>
       <r>    2.2314    1.0000 </r>
       <r>    2.2967    1.0000 </r>
       <r>    2.3435    1.0000 </r>
       <r>    2.4387    1.0000 </r>
       <r>    2.4850    1.0000 </r>
       <r>    2.5436    1.0000 </r>
       <r>    2.5998    1.0000 </r>
       <r>    2.6445    1.0000 </r>
       <r>    2.6661    1.0000 </r>
       <r>    2.7129    1.0000 </r>
       <r>    2.7269    1.0000 </r>
       <r>    2.8273    1.0000 </r>
       <r>    2.8863    1.0000 </r>
       <r>    2.9192    1.0000 </r>
       <r>    2.9944    1.0000 </r>
       <r>    3.0573    1.0000 </r>
       <r>    3.0921    1.0000 </r>
       <r>    3.1752    1.0000 </r>
       <r>    3.2488    1.0000 </r>
       <r>    3.2826    1.0000 </r>
       <r>    3.3221    1.0000 </r>
       <r>    3.6061    1.0000 </r>
       <r>    3.7266    1.0000 </r>
       <r>    4.6290    1.0000 </r>
       <r>    4.6896    1.0000 </r>
       <r>    4.7888    1.0000 </r>
       <r>    4.8345    1.0000 </r>
       <r>    5.2539    1.0000 </r>
       <r>    5.3612    1.0000 </r>
       <r>    5.7670    1.0000 </r>
       <r>    5.8556    1.0000 </r>
       <r>    9.0463    0.0000 </r>
       <r>    9.3438    0.0000 </r>
       <r>    9.5023    0.0000 </r>
       <r>    9.6658    0.0000 </r>
       <r>    9.8261    0.0000 </r>
       <r>   10.1488    0.0000 </r>
       <r>   11.1092    0.0000 </r>
       <r>   11.1878    0.0000 </r>
       <r>   11.3902    0.0000 </r>
       <r>   11.8258    0.0000 </r>
       <r>   12.1009    0.0000 </r>
       <r>   12.9687    0.0000 </r>
      </set>
      <set comment="kpoint 103">
       <r>   -6.2135    1.0000 </r>
       <r>   -6.0796    1.0000 </r>
       <r>   -6.0062    1.0000 </r>
       <r>   -5.9738    1.0000 </r>
       <r>    0.6380    1.0000 </r>
       <r>    0.6843    1.0000 </r>
       <r>    0.7686    1.0000 </r>
       <r>    0.8106    1.0000 </r>
       <r>    0.8603    1.0000 </r>
       <r>    0.9369    1.0000 </r>
       <r>    1.1376    1.0000 </r>
       <r>    1.2157    1.0000 </r>
       <r>    1.3655    1.0000 </r>
       <r>    1.4281    1.0000 </r>
       <r>    1.5149    1.0000 </r>
       <r>    1.6206    1.0000 </r>
       <r>    1.6866    1.0000 </r>
       <r>    1.7478    1.0000 </r>
       <r>    1.8677    1.0000 </r>
       <r>    1.8993    1.0000 </r>
       <r>    1.9305    1.0000 </r>
       <r>    2.0266    1.0000 </r>
       <r>    2.0643    1.0000 </r>
       <r>    2.1390    1.0000 </r>
       <r>    2.2028    1.0000 </r>
       <r>    2.2326    1.0000 </r>
       <r>    2.3060    1.0000 </r>
       <r>    2.3489    1.0000 </r>
       <r>    2.4227    1.0000 </r>
       <r>    2.4902    1.0000 </r>
       <r>    2.5305    1.0000 </r>
       <r>    2.5964    1.0000 </r>
       <r>    2.6258    1.0000 </r>
       <r>    2.6553    1.0000 </r>
       <r>    2.7201    1.0000 </r>
       <r>    2.7494    1.0000 </r>
       <r>    2.8291    1.0000 </r>
       <r>    2.8712    1.0000 </r>
       <r>    2.9189    1.0000 </r>
       <r>    2.9954    1.0000 </r>
       <r>    3.0419    1.0000 </r>
       <r>    3.0756    1.0000 </r>
       <r>    3.1818    1.0000 </r>
       <r>    3.2458    1.0000 </r>
       <r>    3.2783    1.0000 </r>
       <r>    3.4025    1.0000 </r>
       <r>    3.5647    1.0000 </r>
       <r>    3.7999    1.0000 </r>
       <r>    4.5253    1.0000 </r>
       <r>    4.6795    1.0000 </r>
       <r>    4.8028    1.0000 </r>
       <r>    4.8938    1.0000 </r>
       <r>    5.2375    1.0000 </r>
       <r>    5.3907    1.0000 </r>
       <r>    5.7913    1.0000 </r>
       <r>    5.8859    1.0000 </r>
       <r>    8.9457    0.0000 </r>
       <r>    9.3468    0.0000 </r>
       <r>    9.5308    0.0000 </r>
       <r>    9.7580    0.0000 </r>
       <r>    9.8544    0.0000 </r>
       <r>   10.1645    0.0000 </r>
       <r>   11.0675    0.0000 </r>
       <r>   11.1572    0.0000 </r>
       <r>   11.4328    0.0000 </r>
       <r>   11.9014    0.0000 </r>
       <r>   12.0282    0.0000 </r>
       <r>   13.0566    0.0000 </r>
      </set>
      <set comment="kpoint 104">
       <r>   -6.2393    1.0000 </r>
       <r>   -6.0844    1.0000 </r>
       <r>   -5.9976    1.0000 </r>
       <r>   -5.9729    1.0000 </r>
       <r>    0.6365    1.0000 </r>
       <r>    0.6743    1.0000 </r>
       <r>    0.7624    1.0000 </r>
       <r>    0.8078    1.0000 </r>
       <r>    0.8815    1.0000 </r>
       <r>    0.9437    1.0000 </r>
       <r>    1.1267    1.0000 </r>
       <r>    1.2170    1.0000 </r>
       <r>    1.3587    1.0000 </r>
       <r>    1.4206    1.0000 </r>
       <r>    1.5020    1.0000 </r>
       <r>    1.6375    1.0000 </r>
       <r>    1.6758    1.0000 </r>
       <r>    1.7501    1.0000 </r>
       <r>    1.8584    1.0000 </r>
       <r>    1.8831    1.0000 </r>
       <r>    1.9331    1.0000 </r>
       <r>    2.0190    1.0000 </r>
       <r>    2.0621    1.0000 </r>
       <r>    2.1488    1.0000 </r>
       <r>    2.2245    1.0000 </r>
       <r>    2.2375    1.0000 </r>
       <r>    2.3133    1.0000 </r>
       <r>    2.3534    1.0000 </r>
       <r>    2.4161    1.0000 </r>
       <r>    2.4870    1.0000 </r>
       <r>    2.5201    1.0000 </r>
       <r>    2.5609    1.0000 </r>
       <r>    2.6271    1.0000 </r>
       <r>    2.6591    1.0000 </r>
       <r>    2.7192    1.0000 </r>
       <r>    2.7700    1.0000 </r>
       <r>    2.8231    1.0000 </r>
       <r>    2.8639    1.0000 </r>
       <r>    2.9147    1.0000 </r>
       <r>    2.9990    1.0000 </r>
       <r>    3.0239    1.0000 </r>
       <r>    3.0601    1.0000 </r>
       <r>    3.1995    1.0000 </r>
       <r>    3.2470    1.0000 </r>
       <r>    3.2720    1.0000 </r>
       <r>    3.4924    1.0000 </r>
       <r>    3.5408    1.0000 </r>
       <r>    3.8797    1.0000 </r>
       <r>    4.4197    1.0000 </r>
       <r>    4.6728    1.0000 </r>
       <r>    4.8089    1.0000 </r>
       <r>    4.9291    1.0000 </r>
       <r>    5.2161    1.0000 </r>
       <r>    5.4449    1.0000 </r>
       <r>    5.8285    1.0000 </r>
       <r>    5.9307    1.0000 </r>
       <r>    8.8470    0.0000 </r>
       <r>    9.2705    0.0000 </r>
       <r>    9.6405    0.0000 </r>
       <r>    9.8582    0.0000 </r>
       <r>    9.9027    0.0000 </r>
       <r>   10.1890    0.0000 </r>
       <r>   11.0027    0.0000 </r>
       <r>   11.1395    0.0000 </r>
       <r>   11.4963    0.0000 </r>
       <r>   11.8996    0.0000 </r>
       <r>   12.0365    0.0000 </r>
       <r>   13.1589    0.0000 </r>
      </set>
      <set comment="kpoint 105">
       <r>   -6.2708    1.0000 </r>
       <r>   -6.0905    1.0000 </r>
       <r>   -5.9921    1.0000 </r>
       <r>   -5.9693    1.0000 </r>
       <r>    0.6370    1.0000 </r>
       <r>    0.6572    1.0000 </r>
       <r>    0.7582    1.0000 </r>
       <r>    0.8071    1.0000 </r>
       <r>    0.9017    1.0000 </r>
       <r>    0.9508    1.0000 </r>
       <r>    1.1159    1.0000 </r>
       <r>    1.2216    1.0000 </r>
       <r>    1.3494    1.0000 </r>
       <r>    1.4063    1.0000 </r>
       <r>    1.4927    1.0000 </r>
       <r>    1.6466    1.0000 </r>
       <r>    1.6702    1.0000 </r>
       <r>    1.7456    1.0000 </r>
       <r>    1.8425    1.0000 </r>
       <r>    1.8673    1.0000 </r>
       <r>    1.9436    1.0000 </r>
       <r>    2.0081    1.0000 </r>
       <r>    2.0623    1.0000 </r>
       <r>    2.1550    1.0000 </r>
       <r>    2.2378    1.0000 </r>
       <r>    2.2501    1.0000 </r>
       <r>    2.3133    1.0000 </r>
       <r>    2.3591    1.0000 </r>
       <r>    2.4195    1.0000 </r>
       <r>    2.4791    1.0000 </r>
       <r>    2.5124    1.0000 </r>
       <r>    2.5311    1.0000 </r>
       <r>    2.6215    1.0000 </r>
       <r>    2.6761    1.0000 </r>
       <r>    2.7126    1.0000 </r>
       <r>    2.7819    1.0000 </r>
       <r>    2.8159    1.0000 </r>
       <r>    2.8672    1.0000 </r>
       <r>    2.9068    1.0000 </r>
       <r>    2.9924    1.0000 </r>
       <r>    3.0226    1.0000 </r>
       <r>    3.0540    1.0000 </r>
       <r>    3.2003    1.0000 </r>
       <r>    3.2485    1.0000 </r>
       <r>    3.2830    1.0000 </r>
       <r>    3.5074    1.0000 </r>
       <r>    3.6113    1.0000 </r>
       <r>    3.9634    1.0000 </r>
       <r>    4.3201    1.0000 </r>
       <r>    4.6669    1.0000 </r>
       <r>    4.7974    1.0000 </r>
       <r>    4.9505    1.0000 </r>
       <r>    5.1988    1.0000 </r>
       <r>    5.5150    1.0000 </r>
       <r>    5.8764    1.0000 </r>
       <r>    5.9845    1.0000 </r>
       <r>    8.7523    0.0000 </r>
       <r>    9.1907    0.0000 </r>
       <r>    9.7453    0.0000 </r>
       <r>    9.9529    0.0000 </r>
       <r>    9.9867    0.0000 </r>
       <r>   10.2203    0.0000 </r>
       <r>   10.9425    0.0000 </r>
       <r>   11.1243    0.0000 </r>
       <r>   11.5809    0.0000 </r>
       <r>   11.8162    0.0000 </r>
       <r>   12.1285    0.0000 </r>
       <r>   13.2401    0.0000 </r>
      </set>
      <set comment="kpoint 106">
       <r>   -6.3058    1.0000 </r>
       <r>   -6.0978    1.0000 </r>
       <r>   -5.9912    1.0000 </r>
       <r>   -5.9629    1.0000 </r>
       <r>    0.6343    1.0000 </r>
       <r>    0.6399    1.0000 </r>
       <r>    0.7561    1.0000 </r>
       <r>    0.8077    1.0000 </r>
       <r>    0.9125    1.0000 </r>
       <r>    0.9611    1.0000 </r>
       <r>    1.1084    1.0000 </r>
       <r>    1.2300    1.0000 </r>
       <r>    1.3393    1.0000 </r>
       <r>    1.3865    1.0000 </r>
       <r>    1.4863    1.0000 </r>
       <r>    1.6373    1.0000 </r>
       <r>    1.6762    1.0000 </r>
       <r>    1.7372    1.0000 </r>
       <r>    1.8213    1.0000 </r>
       <r>    1.8566    1.0000 </r>
       <r>    1.9478    1.0000 </r>
       <r>    2.0058    1.0000 </r>
       <r>    2.0651    1.0000 </r>
       <r>    2.1550    1.0000 </r>
       <r>    2.2277    1.0000 </r>
       <r>    2.2657    1.0000 </r>
       <r>    2.3169    1.0000 </r>
       <r>    2.3676    1.0000 </r>
       <r>    2.4187    1.0000 </r>
       <r>    2.4759    1.0000 </r>
       <r>    2.4979    1.0000 </r>
       <r>    2.5301    1.0000 </r>
       <r>    2.6173    1.0000 </r>
       <r>    2.6863    1.0000 </r>
       <r>    2.7097    1.0000 </r>
       <r>    2.7812    1.0000 </r>
       <r>    2.8230    1.0000 </r>
       <r>    2.8722    1.0000 </r>
       <r>    2.8975    1.0000 </r>
       <r>    2.9817    1.0000 </r>
       <r>    3.0335    1.0000 </r>
       <r>    3.0545    1.0000 </r>
       <r>    3.1949    1.0000 </r>
       <r>    3.2371    1.0000 </r>
       <r>    3.3120    1.0000 </r>
       <r>    3.4996    1.0000 </r>
       <r>    3.7210    1.0000 </r>
       <r>    4.0456    1.0000 </r>
       <r>    4.2344    1.0000 </r>
       <r>    4.6538    1.0000 </r>
       <r>    4.7693    1.0000 </r>
       <r>    4.9703    1.0000 </r>
       <r>    5.1938    1.0000 </r>
       <r>    5.5863    1.0000 </r>
       <r>    5.9348    1.0000 </r>
       <r>    6.0429    1.0000 </r>
       <r>    8.6523    0.0000 </r>
       <r>    9.1304    0.0000 </r>
       <r>    9.8223    0.0000 </r>
       <r>   10.0315    0.0000 </r>
       <r>   10.1108    0.0000 </r>
       <r>   10.2598    0.0000 </r>
       <r>   10.9031    0.0000 </r>
       <r>   11.1081    0.0000 </r>
       <r>   11.6798    0.0000 </r>
       <r>   11.7549    0.0000 </r>
       <r>   12.1985    0.0000 </r>
       <r>   13.2686    0.0000 </r>
      </set>
      <set comment="kpoint 107">
       <r>   -6.3431    1.0000 </r>
       <r>   -6.1059    1.0000 </r>
       <r>   -5.9931    1.0000 </r>
       <r>   -5.9561    1.0000 </r>
       <r>    0.6099    1.0000 </r>
       <r>    0.6425    1.0000 </r>
       <r>    0.7551    1.0000 </r>
       <r>    0.8098    1.0000 </r>
       <r>    0.9094    1.0000 </r>
       <r>    0.9750    1.0000 </r>
       <r>    1.1058    1.0000 </r>
       <r>    1.2406    1.0000 </r>
       <r>    1.3300    1.0000 </r>
       <r>    1.3641    1.0000 </r>
       <r>    1.4824    1.0000 </r>
       <r>    1.6159    1.0000 </r>
       <r>    1.6855    1.0000 </r>
       <r>    1.7287    1.0000 </r>
       <r>    1.7982    1.0000 </r>
       <r>    1.8503    1.0000 </r>
       <r>    1.9344    1.0000 </r>
       <r>    2.0200    1.0000 </r>
       <r>    2.0688    1.0000 </r>
       <r>    2.1506    1.0000 </r>
       <r>    2.2010    1.0000 </r>
       <r>    2.2674    1.0000 </r>
       <r>    2.3327    1.0000 </r>
       <r>    2.3710    1.0000 </r>
       <r>    2.4155    1.0000 </r>
       <r>    2.4692    1.0000 </r>
       <r>    2.5027    1.0000 </r>
       <r>    2.5441    1.0000 </r>
       <r>    2.6165    1.0000 </r>
       <r>    2.6818    1.0000 </r>
       <r>    2.7190    1.0000 </r>
       <r>    2.7777    1.0000 </r>
       <r>    2.8374    1.0000 </r>
       <r>    2.8781    1.0000 </r>
       <r>    2.8894    1.0000 </r>
       <r>    2.9772    1.0000 </r>
       <r>    3.0337    1.0000 </r>
       <r>    3.0694    1.0000 </r>
       <r>    3.1905    1.0000 </r>
       <r>    3.2249    1.0000 </r>
       <r>    3.3396    1.0000 </r>
       <r>    3.5014    1.0000 </r>
       <r>    3.8356    1.0000 </r>
       <r>    4.0879    1.0000 </r>
       <r>    4.2030    1.0000 </r>
       <r>    4.6235    1.0000 </r>
       <r>    4.7305    1.0000 </r>
       <r>    4.9996    1.0000 </r>
       <r>    5.2041    1.0000 </r>
       <r>    5.6479    1.0000 </r>
       <r>    6.0034    1.0000 </r>
       <r>    6.1028    1.0000 </r>
       <r>    8.5356    0.0000 </r>
       <r>    9.1058    0.0000 </r>
       <r>    9.8586    0.0000 </r>
       <r>   10.1046    0.0000 </r>
       <r>   10.2381    0.0000 </r>
       <r>   10.3238    0.0000 </r>
       <r>   10.8944    0.0000 </r>
       <r>   11.0928    0.0000 </r>
       <r>   11.6950    0.0000 </r>
       <r>   11.8276    0.0000 </r>
       <r>   12.2160    0.0000 </r>
       <r>   13.2295    0.0000 </r>
      </set>
      <set comment="kpoint 108">
       <r>   -6.3816    1.0000 </r>
       <r>   -6.1148    1.0000 </r>
       <r>   -5.9964    1.0000 </r>
       <r>   -5.9505    1.0000 </r>
       <r>    0.5851    1.0000 </r>
       <r>    0.6441    1.0000 </r>
       <r>    0.7535    1.0000 </r>
       <r>    0.8144    1.0000 </r>
       <r>    0.8967    1.0000 </r>
       <r>    0.9872    1.0000 </r>
       <r>    1.1072    1.0000 </r>
       <r>    1.2480    1.0000 </r>
       <r>    1.3209    1.0000 </r>
       <r>    1.3477    1.0000 </r>
       <r>    1.4807    1.0000 </r>
       <r>    1.5920    1.0000 </r>
       <r>    1.6886    1.0000 </r>
       <r>    1.7228    1.0000 </r>
       <r>    1.7746    1.0000 </r>
       <r>    1.8479    1.0000 </r>
       <r>    1.9155    1.0000 </r>
       <r>    2.0341    1.0000 </r>
       <r>    2.0719    1.0000 </r>
       <r>    2.1418    1.0000 </r>
       <r>    2.1692    1.0000 </r>
       <r>    2.2660    1.0000 </r>
       <r>    2.3421    1.0000 </r>
       <r>    2.3670    1.0000 </r>
       <r>    2.4190    1.0000 </r>
       <r>    2.4715    1.0000 </r>
       <r>    2.5146    1.0000 </r>
       <r>    2.5597    1.0000 </r>
       <r>    2.6213    1.0000 </r>
       <r>    2.6805    1.0000 </r>
       <r>    2.7249    1.0000 </r>
       <r>    2.7754    1.0000 </r>
       <r>    2.8534    1.0000 </r>
       <r>    2.8816    1.0000 </r>
       <r>    2.8912    1.0000 </r>
       <r>    2.9777    1.0000 </r>
       <r>    3.0269    1.0000 </r>
       <r>    3.0916    1.0000 </r>
       <r>    3.1842    1.0000 </r>
       <r>    3.2175    1.0000 </r>
       <r>    3.3647    1.0000 </r>
       <r>    3.5143    1.0000 </r>
       <r>    3.9484    1.0000 </r>
       <r>    4.0467    1.0000 </r>
       <r>    4.2744    1.0000 </r>
       <r>    4.5751    1.0000 </r>
       <r>    4.6829    1.0000 </r>
       <r>    5.0445    1.0000 </r>
       <r>    5.2300    1.0000 </r>
       <r>    5.6952    1.0000 </r>
       <r>    6.0804    1.0000 </r>
       <r>    6.1621    1.0000 </r>
       <r>    8.3973    0.0000 </r>
       <r>    9.1231    0.0000 </r>
       <r>    9.8434    0.0000 </r>
       <r>   10.1565    0.0000 </r>
       <r>   10.3491    0.0000 </r>
       <r>   10.4386    0.0000 </r>
       <r>   10.9148    0.0000 </r>
       <r>   11.0883    0.0000 </r>
       <r>   11.6944    0.0000 </r>
       <r>   11.9656    0.0000 </r>
       <r>   12.1640    0.0000 </r>
       <r>   13.1372    0.0000 </r>
      </set>
      <set comment="kpoint 109">
       <r>   -6.4202    1.0000 </r>
       <r>   -6.1241    1.0000 </r>
       <r>   -6.0005    1.0000 </r>
       <r>   -5.9463    1.0000 </r>
       <r>    0.5618    1.0000 </r>
       <r>    0.6427    1.0000 </r>
       <r>    0.7491    1.0000 </r>
       <r>    0.8224    1.0000 </r>
       <r>    0.8794    1.0000 </r>
       <r>    0.9962    1.0000 </r>
       <r>    1.1089    1.0000 </r>
       <r>    1.2454    1.0000 </r>
       <r>    1.3052    1.0000 </r>
       <r>    1.3498    1.0000 </r>
       <r>    1.4815    1.0000 </r>
       <r>    1.5705    1.0000 </r>
       <r>    1.6869    1.0000 </r>
       <r>    1.7154    1.0000 </r>
       <r>    1.7531    1.0000 </r>
       <r>    1.8443    1.0000 </r>
       <r>    1.9049    1.0000 </r>
       <r>    2.0362    1.0000 </r>
       <r>    2.0698    1.0000 </r>
       <r>    2.1140    1.0000 </r>
       <r>    2.1622    1.0000 </r>
       <r>    2.2654    1.0000 </r>
       <r>    2.3340    1.0000 </r>
       <r>    2.3662    1.0000 </r>
       <r>    2.4307    1.0000 </r>
       <r>    2.4833    1.0000 </r>
       <r>    2.5203    1.0000 </r>
       <r>    2.5715    1.0000 </r>
       <r>    2.6327    1.0000 </r>
       <r>    2.6873    1.0000 </r>
       <r>    2.7252    1.0000 </r>
       <r>    2.7747    1.0000 </r>
       <r>    2.8685    1.0000 </r>
       <r>    2.8763    1.0000 </r>
       <r>    2.9106    1.0000 </r>
       <r>    2.9806    1.0000 </r>
       <r>    3.0194    1.0000 </r>
       <r>    3.1143    1.0000 </r>
       <r>    3.1743    1.0000 </r>
       <r>    3.2140    1.0000 </r>
       <r>    3.3928    1.0000 </r>
       <r>    3.5379    1.0000 </r>
       <r>    3.9782    1.0000 </r>
       <r>    4.0769    1.0000 </r>
       <r>    4.3716    1.0000 </r>
       <r>    4.5159    1.0000 </r>
       <r>    4.6282    1.0000 </r>
       <r>    5.0965    1.0000 </r>
       <r>    5.2788    1.0000 </r>
       <r>    5.7286    1.0000 </r>
       <r>    6.1617    1.0000 </r>
       <r>    6.2198    1.0000 </r>
       <r>    8.2403    0.0000 </r>
       <r>    9.1764    0.0000 </r>
       <r>    9.7765    0.0000 </r>
       <r>   10.1830    0.0000 </r>
       <r>   10.4612    0.0000 </r>
       <r>   10.5797    0.0000 </r>
       <r>   10.9393    0.0000 </r>
       <r>   11.1201    0.0000 </r>
       <r>   11.7312    0.0000 </r>
       <r>   11.9900    0.0000 </r>
       <r>   12.1653    0.0000 </r>
       <r>   13.0178    0.0000 </r>
      </set>
      <set comment="kpoint 110">
       <r>   -6.4583    1.0000 </r>
       <r>   -6.1337    1.0000 </r>
       <r>   -6.0052    1.0000 </r>
       <r>   -5.9438    1.0000 </r>
       <r>    0.5411    1.0000 </r>
       <r>    0.6373    1.0000 </r>
       <r>    0.7401    1.0000 </r>
       <r>    0.8300    1.0000 </r>
       <r>    0.8646    1.0000 </r>
       <r>    1.0037    1.0000 </r>
       <r>    1.1069    1.0000 </r>
       <r>    1.2311    1.0000 </r>
       <r>    1.2893    1.0000 </r>
       <r>    1.3604    1.0000 </r>
       <r>    1.4880    1.0000 </r>
       <r>    1.5540    1.0000 </r>
       <r>    1.6842    1.0000 </r>
       <r>    1.7022    1.0000 </r>
       <r>    1.7384    1.0000 </r>
       <r>    1.8314    1.0000 </r>
       <r>    1.9118    1.0000 </r>
       <r>    2.0246    1.0000 </r>
       <r>    2.0583    1.0000 </r>
       <r>    2.0868    1.0000 </r>
       <r>    2.1672    1.0000 </r>
       <r>    2.2667    1.0000 </r>
       <r>    2.3174    1.0000 </r>
       <r>    2.3709    1.0000 </r>
       <r>    2.4481    1.0000 </r>
       <r>    2.4942    1.0000 </r>
       <r>    2.5180    1.0000 </r>
       <r>    2.5846    1.0000 </r>
       <r>    2.6430    1.0000 </r>
       <r>    2.7004    1.0000 </r>
       <r>    2.7234    1.0000 </r>
       <r>    2.7778    1.0000 </r>
       <r>    2.8690    1.0000 </r>
       <r>    2.8848    1.0000 </r>
       <r>    2.9325    1.0000 </r>
       <r>    2.9825    1.0000 </r>
       <r>    3.0145    1.0000 </r>
       <r>    3.1303    1.0000 </r>
       <r>    3.1691    1.0000 </r>
       <r>    3.2079    1.0000 </r>
       <r>    3.4254    1.0000 </r>
       <r>    3.5713    1.0000 </r>
       <r>    3.9437    1.0000 </r>
       <r>    4.1753    1.0000 </r>
       <r>    4.4495    1.0000 </r>
       <r>    4.4754    1.0000 </r>
       <r>    4.5767    1.0000 </r>
       <r>    5.1411    1.0000 </r>
       <r>    5.3622    1.0000 </r>
       <r>    5.7505    1.0000 </r>
       <r>    6.2417    1.0000 </r>
       <r>    6.2764    1.0000 </r>
       <r>    8.0702    0.0000 </r>
       <r>    9.2490    0.0000 </r>
       <r>    9.6761    0.0000 </r>
       <r>   10.1842    0.0000 </r>
       <r>   10.5783    0.0000 </r>
       <r>   10.7206    0.0000 </r>
       <r>   10.9469    0.0000 </r>
       <r>   11.2035    0.0000 </r>
       <r>   11.7809    0.0000 </r>
       <r>   11.8375    0.0000 </r>
       <r>   12.3286    0.0000 </r>
       <r>   12.8854    0.0000 </r>
      </set>
      <set comment="kpoint 111">
       <r>   -6.4950    1.0000 </r>
       <r>   -6.1431    1.0000 </r>
       <r>   -6.0101    1.0000 </r>
       <r>   -5.9427    1.0000 </r>
       <r>    0.5237    1.0000 </r>
       <r>    0.6285    1.0000 </r>
       <r>    0.7260    1.0000 </r>
       <r>    0.8202    1.0000 </r>
       <r>    0.8699    1.0000 </r>
       <r>    1.0116    1.0000 </r>
       <r>    1.0997    1.0000 </r>
       <r>    1.2106    1.0000 </r>
       <r>    1.2758    1.0000 </r>
       <r>    1.3641    1.0000 </r>
       <r>    1.5042    1.0000 </r>
       <r>    1.5441    1.0000 </r>
       <r>    1.6728    1.0000 </r>
       <r>    1.6933    1.0000 </r>
       <r>    1.7335    1.0000 </r>
       <r>    1.8134    1.0000 </r>
       <r>    1.9287    1.0000 </r>
       <r>    2.0005    1.0000 </r>
       <r>    2.0448    1.0000 </r>
       <r>    2.0729    1.0000 </r>
       <r>    2.1670    1.0000 </r>
       <r>    2.2673    1.0000 </r>
       <r>    2.3058    1.0000 </r>
       <r>    2.3774    1.0000 </r>
       <r>    2.4657    1.0000 </r>
       <r>    2.4958    1.0000 </r>
       <r>    2.5180    1.0000 </r>
       <r>    2.5995    1.0000 </r>
       <r>    2.6470    1.0000 </r>
       <r>    2.7147    1.0000 </r>
       <r>    2.7243    1.0000 </r>
       <r>    2.7860    1.0000 </r>
       <r>    2.8644    1.0000 </r>
       <r>    2.8995    1.0000 </r>
       <r>    2.9515    1.0000 </r>
       <r>    2.9803    1.0000 </r>
       <r>    3.0146    1.0000 </r>
       <r>    3.1297    1.0000 </r>
       <r>    3.1761    1.0000 </r>
       <r>    3.2017    1.0000 </r>
       <r>    3.4554    1.0000 </r>
       <r>    3.6075    1.0000 </r>
       <r>    3.9376    1.0000 </r>
       <r>    4.2376    1.0000 </r>
       <r>    4.3985    1.0000 </r>
       <r>    4.5262    1.0000 </r>
       <r>    4.5893    1.0000 </r>
       <r>    5.1821    1.0000 </r>
       <r>    5.4790    1.0000 </r>
       <r>    5.7636    1.0000 </r>
       <r>    6.3108    1.0000 </r>
       <r>    6.3378    1.0000 </r>
       <r>    7.8919    0.0000 </r>
       <r>    9.2924    0.0000 </r>
       <r>    9.5927    0.0000 </r>
       <r>   10.1557    0.0000 </r>
       <r>   10.6875    0.0000 </r>
       <r>   10.8362    0.0000 </r>
       <r>   10.9645    0.0000 </r>
       <r>   11.3007    0.0000 </r>
       <r>   11.6100    0.0000 </r>
       <r>   11.9357    0.0000 </r>
       <r>   12.5053    0.0000 </r>
       <r>   12.7548    0.0000 </r>
      </set>
      <set comment="kpoint 112">
       <r>   -6.5296    1.0000 </r>
       <r>   -6.1523    1.0000 </r>
       <r>   -6.0151    1.0000 </r>
       <r>   -5.9427    1.0000 </r>
       <r>    0.5099    1.0000 </r>
       <r>    0.6172    1.0000 </r>
       <r>    0.7077    1.0000 </r>
       <r>    0.7978    1.0000 </r>
       <r>    0.8898    1.0000 </r>
       <r>    1.0207    1.0000 </r>
       <r>    1.0866    1.0000 </r>
       <r>    1.1903    1.0000 </r>
       <r>    1.2621    1.0000 </r>
       <r>    1.3561    1.0000 </r>
       <r>    1.5234    1.0000 </r>
       <r>    1.5461    1.0000 </r>
       <r>    1.6525    1.0000 </r>
       <r>    1.6909    1.0000 </r>
       <r>    1.7391    1.0000 </r>
       <r>    1.7973    1.0000 </r>
       <r>    1.9383    1.0000 </r>
       <r>    1.9816    1.0000 </r>
       <r>    2.0360    1.0000 </r>
       <r>    2.0665    1.0000 </r>
       <r>    2.1605    1.0000 </r>
       <r>    2.2581    1.0000 </r>
       <r>    2.3083    1.0000 </r>
       <r>    2.3834    1.0000 </r>
       <r>    2.4673    1.0000 </r>
       <r>    2.5004    1.0000 </r>
       <r>    2.5253    1.0000 </r>
       <r>    2.6080    1.0000 </r>
       <r>    2.6485    1.0000 </r>
       <r>    2.7218    1.0000 </r>
       <r>    2.7356    1.0000 </r>
       <r>    2.7986    1.0000 </r>
       <r>    2.8607    1.0000 </r>
       <r>    2.9152    1.0000 </r>
       <r>    2.9654    1.0000 </r>
       <r>    2.9753    1.0000 </r>
       <r>    3.0182    1.0000 </r>
       <r>    3.1223    1.0000 </r>
       <r>    3.1699    1.0000 </r>
       <r>    3.2150    1.0000 </r>
       <r>    3.4767    1.0000 </r>
       <r>    3.6266    1.0000 </r>
       <r>    3.9798    1.0000 </r>
       <r>    4.2252    1.0000 </r>
       <r>    4.3521    1.0000 </r>
       <r>    4.5667    1.0000 </r>
       <r>    4.6657    1.0000 </r>
       <r>    5.2374    1.0000 </r>
       <r>    5.6179    1.0000 </r>
       <r>    5.7702    1.0000 </r>
       <r>    6.3630    1.0000 </r>
       <r>    6.4074    1.0000 </r>
       <r>    7.7098    0.0000 </r>
       <r>    9.2149    0.0000 </r>
       <r>    9.6151    0.0000 </r>
       <r>   10.0942    0.0000 </r>
       <r>   10.7641    0.0000 </r>
       <r>   10.8835    0.0000 </r>
       <r>   11.0162    0.0000 </r>
       <r>   11.3071    0.0000 </r>
       <r>   11.5730    0.0000 </r>
       <r>   12.0854    0.0000 </r>
       <r>   12.6144    0.0000 </r>
       <r>   12.7064    0.0000 </r>
      </set>
      <set comment="kpoint 113">
       <r>   -6.5617    1.0000 </r>
       <r>   -6.1609    1.0000 </r>
       <r>   -6.0199    1.0000 </r>
       <r>   -5.9437    1.0000 </r>
       <r>    0.4996    1.0000 </r>
       <r>    0.6049    1.0000 </r>
       <r>    0.6867    1.0000 </r>
       <r>    0.7733    1.0000 </r>
       <r>    0.9126    1.0000 </r>
       <r>    1.0300    1.0000 </r>
       <r>    1.0677    1.0000 </r>
       <r>    1.1753    1.0000 </r>
       <r>    1.2478    1.0000 </r>
       <r>    1.3400    1.0000 </r>
       <r>    1.5282    1.0000 </r>
       <r>    1.5677    1.0000 </r>
       <r>    1.6310    1.0000 </r>
       <r>    1.6911    1.0000 </r>
       <r>    1.7480    1.0000 </r>
       <r>    1.7889    1.0000 </r>
       <r>    1.9245    1.0000 </r>
       <r>    1.9862    1.0000 </r>
       <r>    2.0339    1.0000 </r>
       <r>    2.0661    1.0000 </r>
       <r>    2.1529    1.0000 </r>
       <r>    2.2434    1.0000 </r>
       <r>    2.3168    1.0000 </r>
       <r>    2.3888    1.0000 </r>
       <r>    2.4568    1.0000 </r>
       <r>    2.5052    1.0000 </r>
       <r>    2.5378    1.0000 </r>
       <r>    2.6065    1.0000 </r>
       <r>    2.6437    1.0000 </r>
       <r>    2.7359    1.0000 </r>
       <r>    2.7501    1.0000 </r>
       <r>    2.8140    1.0000 </r>
       <r>    2.8568    1.0000 </r>
       <r>    2.9319    1.0000 </r>
       <r>    2.9666    1.0000 </r>
       <r>    2.9778    1.0000 </r>
       <r>    3.0231    1.0000 </r>
       <r>    3.1164    1.0000 </r>
       <r>    3.1561    1.0000 </r>
       <r>    3.2384    1.0000 </r>
       <r>    3.4894    1.0000 </r>
       <r>    3.6206    1.0000 </r>
       <r>    4.0569    1.0000 </r>
       <r>    4.1699    1.0000 </r>
       <r>    4.3100    1.0000 </r>
       <r>    4.6513    1.0000 </r>
       <r>    4.7251    1.0000 </r>
       <r>    5.3223    1.0000 </r>
       <r>    5.7665    1.0000 </r>
       <r>    5.7756    1.0000 </r>
       <r>    6.4078    1.0000 </r>
       <r>    6.4741    1.0000 </r>
       <r>    7.5273    0.0000 </r>
       <r>    9.0510    0.0000 </r>
       <r>    9.6993    0.0000 </r>
       <r>   10.0034    0.0000 </r>
       <r>   10.7474    0.0000 </r>
       <r>   10.8477    0.0000 </r>
       <r>   11.0755    0.0000 </r>
       <r>   11.3347    0.0000 </r>
       <r>   11.6840    0.0000 </r>
       <r>   12.2288    0.0000 </r>
       <r>   12.5782    0.0000 </r>
       <r>   12.8331    0.0000 </r>
      </set>
      <set comment="kpoint 114">
       <r>   -6.5905    1.0000 </r>
       <r>   -6.1688    1.0000 </r>
       <r>   -6.0246    1.0000 </r>
       <r>   -5.9453    1.0000 </r>
       <r>    0.4926    1.0000 </r>
       <r>    0.5929    1.0000 </r>
       <r>    0.6645    1.0000 </r>
       <r>    0.7502    1.0000 </r>
       <r>    0.9328    1.0000 </r>
       <r>    1.0301    1.0000 </r>
       <r>    1.0537    1.0000 </r>
       <r>    1.1669    1.0000 </r>
       <r>    1.2351    1.0000 </r>
       <r>    1.3209    1.0000 </r>
       <r>    1.5290    1.0000 </r>
       <r>    1.5865    1.0000 </r>
       <r>    1.6106    1.0000 </r>
       <r>    1.6956    1.0000 </r>
       <r>    1.7512    1.0000 </r>
       <r>    1.7904    1.0000 </r>
       <r>    1.9110    1.0000 </r>
       <r>    1.9938    1.0000 </r>
       <r>    2.0395    1.0000 </r>
       <r>    2.0722    1.0000 </r>
       <r>    2.1498    1.0000 </r>
       <r>    2.2287    1.0000 </r>
       <r>    2.3221    1.0000 </r>
       <r>    2.3948    1.0000 </r>
       <r>    2.4478    1.0000 </r>
       <r>    2.5032    1.0000 </r>
       <r>    2.5472    1.0000 </r>
       <r>    2.6013    1.0000 </r>
       <r>    2.6260    1.0000 </r>
       <r>    2.7533    1.0000 </r>
       <r>    2.7701    1.0000 </r>
       <r>    2.8300    1.0000 </r>
       <r>    2.8539    1.0000 </r>
       <r>    2.9470    1.0000 </r>
       <r>    2.9606    1.0000 </r>
       <r>    2.9872    1.0000 </r>
       <r>    3.0298    1.0000 </r>
       <r>    3.1140    1.0000 </r>
       <r>    3.1445    1.0000 </r>
       <r>    3.2630    1.0000 </r>
       <r>    3.4948    1.0000 </r>
       <r>    3.6007    1.0000 </r>
       <r>    4.0798    1.0000 </r>
       <r>    4.1232    1.0000 </r>
       <r>    4.3281    1.0000 </r>
       <r>    4.7193    1.0000 </r>
       <r>    4.7912    1.0000 </r>
       <r>    5.4377    1.0000 </r>
       <r>    5.7743    1.0000 </r>
       <r>    5.9242    1.0000 </r>
       <r>    6.4498    1.0000 </r>
       <r>    6.5335    1.0000 </r>
       <r>    7.3480    0.0000 </r>
       <r>    8.8593    0.0000 </r>
       <r>    9.7549    0.0000 </r>
       <r>    9.9123    0.0000 </r>
       <r>   10.5514    0.0000 </r>
       <r>   10.8693    0.0000 </r>
       <r>   11.1658    0.0000 </r>
       <r>   11.4392    0.0000 </r>
       <r>   11.8074    0.0000 </r>
       <r>   12.2753    0.0000 </r>
       <r>   12.6833    0.0000 </r>
       <r>   12.9094    0.0000 </r>
      </set>
      <set comment="kpoint 115">
       <r>   -6.6158    1.0000 </r>
       <r>   -6.1757    1.0000 </r>
       <r>   -6.0288    1.0000 </r>
       <r>   -5.9471    1.0000 </r>
       <r>    0.4879    1.0000 </r>
       <r>    0.5822    1.0000 </r>
       <r>    0.6422    1.0000 </r>
       <r>    0.7317    1.0000 </r>
       <r>    0.9398    1.0000 </r>
       <r>    1.0157    1.0000 </r>
       <r>    1.0598    1.0000 </r>
       <r>    1.1628    1.0000 </r>
       <r>    1.2266    1.0000 </r>
       <r>    1.3020    1.0000 </r>
       <r>    1.5293    1.0000 </r>
       <r>    1.5843    1.0000 </r>
       <r>    1.6023    1.0000 </r>
       <r>    1.6988    1.0000 </r>
       <r>    1.7529    1.0000 </r>
       <r>    1.7925    1.0000 </r>
       <r>    1.9131    1.0000 </r>
       <r>    1.9985    1.0000 </r>
       <r>    2.0502    1.0000 </r>
       <r>    2.0831    1.0000 </r>
       <r>    2.1558    1.0000 </r>
       <r>    2.2162    1.0000 </r>
       <r>    2.3205    1.0000 </r>
       <r>    2.4021    1.0000 </r>
       <r>    2.4430    1.0000 </r>
       <r>    2.4971    1.0000 </r>
       <r>    2.5474    1.0000 </r>
       <r>    2.5867    1.0000 </r>
       <r>    2.6117    1.0000 </r>
       <r>    2.7605    1.0000 </r>
       <r>    2.7891    1.0000 </r>
       <r>    2.8448    1.0000 </r>
       <r>    2.8580    1.0000 </r>
       <r>    2.9495    1.0000 </r>
       <r>    2.9657    1.0000 </r>
       <r>    3.0003    1.0000 </r>
       <r>    3.0405    1.0000 </r>
       <r>    3.1152    1.0000 </r>
       <r>    3.1373    1.0000 </r>
       <r>    3.2871    1.0000 </r>
       <r>    3.4928    1.0000 </r>
       <r>    3.5774    1.0000 </r>
       <r>    4.0184    1.0000 </r>
       <r>    4.0824    1.0000 </r>
       <r>    4.4368    1.0000 </r>
       <r>    4.7342    1.0000 </r>
       <r>    4.8949    1.0000 </r>
       <r>    5.5685    1.0000 </r>
       <r>    5.7825    1.0000 </r>
       <r>    6.0717    1.0000 </r>
       <r>    6.4926    1.0000 </r>
       <r>    6.5834    1.0000 </r>
       <r>    7.1762    0.0000 </r>
       <r>    8.6596    0.0000 </r>
       <r>    9.6832    0.0000 </r>
       <r>    9.9023    0.0000 </r>
       <r>   10.3267    0.0000 </r>
       <r>   10.9213    0.0000 </r>
       <r>   11.2601    0.0000 </r>
       <r>   11.5528    0.0000 </r>
       <r>   11.9073    0.0000 </r>
       <r>   12.2650    0.0000 </r>
       <r>   12.8758    0.0000 </r>
       <r>   12.9909    0.0000 </r>
      </set>
      <set comment="kpoint 116">
       <r>   -6.6370    1.0000 </r>
       <r>   -6.1816    1.0000 </r>
       <r>   -6.0324    1.0000 </r>
       <r>   -5.9491    1.0000 </r>
       <r>    0.4850    1.0000 </r>
       <r>    0.5734    1.0000 </r>
       <r>    0.6211    1.0000 </r>
       <r>    0.7204    1.0000 </r>
       <r>    0.9193    1.0000 </r>
       <r>    1.0193    1.0000 </r>
       <r>    1.0689    1.0000 </r>
       <r>    1.1602    1.0000 </r>
       <r>    1.2229    1.0000 </r>
       <r>    1.2862    1.0000 </r>
       <r>    1.5273    1.0000 </r>
       <r>    1.5675    1.0000 </r>
       <r>    1.6054    1.0000 </r>
       <r>    1.6943    1.0000 </r>
       <r>    1.7534    1.0000 </r>
       <r>    1.7922    1.0000 </r>
       <r>    1.9311    1.0000 </r>
       <r>    2.0033    1.0000 </r>
       <r>    2.0616    1.0000 </r>
       <r>    2.0981    1.0000 </r>
       <r>    2.1713    1.0000 </r>
       <r>    2.2086    1.0000 </r>
       <r>    2.3131    1.0000 </r>
       <r>    2.4072    1.0000 </r>
       <r>    2.4412    1.0000 </r>
       <r>    2.4893    1.0000 </r>
       <r>    2.5377    1.0000 </r>
       <r>    2.5602    1.0000 </r>
       <r>    2.6116    1.0000 </r>
       <r>    2.7550    1.0000 </r>
       <r>    2.7967    1.0000 </r>
       <r>    2.8550    1.0000 </r>
       <r>    2.8714    1.0000 </r>
       <r>    2.9490    1.0000 </r>
       <r>    2.9755    1.0000 </r>
       <r>    3.0167    1.0000 </r>
       <r>    3.0586    1.0000 </r>
       <r>    3.1214    1.0000 </r>
       <r>    3.1345    1.0000 </r>
       <r>    3.3097    1.0000 </r>
       <r>    3.4819    1.0000 </r>
       <r>    3.5568    1.0000 </r>
       <r>    3.9524    1.0000 </r>
       <r>    4.0271    1.0000 </r>
       <r>    4.5713    1.0000 </r>
       <r>    4.7312    1.0000 </r>
       <r>    5.0043    1.0000 </r>
       <r>    5.6741    1.0000 </r>
       <r>    5.8261    1.0000 </r>
       <r>    6.1988    1.0000 </r>
       <r>    6.5419    1.0000 </r>
       <r>    6.6222    1.0000 </r>
       <r>    7.0171   -0.0000 </r>
       <r>    8.4633    0.0000 </r>
       <r>    9.5532    0.0000 </r>
       <r>    9.8887    0.0000 </r>
       <r>   10.1444    0.0000 </r>
       <r>   10.9898    0.0000 </r>
       <r>   11.3443    0.0000 </r>
       <r>   11.6540    0.0000 </r>
       <r>   11.9695    0.0000 </r>
       <r>   12.2762    0.0000 </r>
       <r>   12.9875    0.0000 </r>
       <r>   13.2077    0.0000 </r>
      </set>
      <set comment="kpoint 117">
       <r>   -6.6538    1.0000 </r>
       <r>   -6.1864    1.0000 </r>
       <r>   -6.0354    1.0000 </r>
       <r>   -5.9508    1.0000 </r>
       <r>    0.4830    1.0000 </r>
       <r>    0.5666    1.0000 </r>
       <r>    0.6025    1.0000 </r>
       <r>    0.7181    1.0000 </r>
       <r>    0.8828    1.0000 </r>
       <r>    1.0347    1.0000 </r>
       <r>    1.0765    1.0000 </r>
       <r>    1.1579    1.0000 </r>
       <r>    1.2205    1.0000 </r>
       <r>    1.2767    1.0000 </r>
       <r>    1.5202    1.0000 </r>
       <r>    1.5557    1.0000 </r>
       <r>    1.6083    1.0000 </r>
       <r>    1.6840    1.0000 </r>
       <r>    1.7495    1.0000 </r>
       <r>    1.7921    1.0000 </r>
       <r>    1.9540    1.0000 </r>
       <r>    2.0126    1.0000 </r>
       <r>    2.0690    1.0000 </r>
       <r>    2.1171    1.0000 </r>
       <r>    2.1913    1.0000 </r>
       <r>    2.2115    1.0000 </r>
       <r>    2.3031    1.0000 </r>
       <r>    2.3998    1.0000 </r>
       <r>    2.4423    1.0000 </r>
       <r>    2.4809    1.0000 </r>
       <r>    2.5149    1.0000 </r>
       <r>    2.5488    1.0000 </r>
       <r>    2.6123    1.0000 </r>
       <r>    2.7371    1.0000 </r>
       <r>    2.8029    1.0000 </r>
       <r>    2.8567    1.0000 </r>
       <r>    2.8844    1.0000 </r>
       <r>    2.9550    1.0000 </r>
       <r>    2.9832    1.0000 </r>
       <r>    3.0306    1.0000 </r>
       <r>    3.0791    1.0000 </r>
       <r>    3.1339    1.0000 </r>
       <r>    3.1420    1.0000 </r>
       <r>    3.3299    1.0000 </r>
       <r>    3.4603    1.0000 </r>
       <r>    3.5417    1.0000 </r>
       <r>    3.8932    1.0000 </r>
       <r>    3.9746    1.0000 </r>
       <r>    4.6937    1.0000 </r>
       <r>    4.7283    1.0000 </r>
       <r>    5.1062    1.0000 </r>
       <r>    5.7105    1.0000 </r>
       <r>    5.9367    1.0000 </r>
       <r>    6.2924    1.0000 </r>
       <r>    6.6006    1.0000 </r>
       <r>    6.6472    1.0000 </r>
       <r>    6.8803   -0.0000 </r>
       <r>    8.2822    0.0000 </r>
       <r>    9.4321    0.0000 </r>
       <r>    9.7769    0.0000 </r>
       <r>   10.0692    0.0000 </r>
       <r>   11.0607    0.0000 </r>
       <r>   11.4129    0.0000 </r>
       <r>   11.7335    0.0000 </r>
       <r>   12.0043    0.0000 </r>
       <r>   12.3173    0.0000 </r>
       <r>   13.0736    0.0000 </r>
       <r>   13.3887    0.0000 </r>
      </set>
      <set comment="kpoint 118">
       <r>   -6.6661    1.0000 </r>
       <r>   -6.1898    1.0000 </r>
       <r>   -6.0376    1.0000 </r>
       <r>   -5.9522    1.0000 </r>
       <r>    0.4818    1.0000 </r>
       <r>    0.5618    1.0000 </r>
       <r>    0.5878    1.0000 </r>
       <r>    0.7256    1.0000 </r>
       <r>    0.8436    1.0000 </r>
       <r>    1.0506    1.0000 </r>
       <r>    1.0816    1.0000 </r>
       <r>    1.1563    1.0000 </r>
       <r>    1.2159    1.0000 </r>
       <r>    1.2752    1.0000 </r>
       <r>    1.5085    1.0000 </r>
       <r>    1.5510    1.0000 </r>
       <r>    1.6121    1.0000 </r>
       <r>    1.6712    1.0000 </r>
       <r>    1.7450    1.0000 </r>
       <r>    1.7912    1.0000 </r>
       <r>    1.9690    1.0000 </r>
       <r>    2.0285    1.0000 </r>
       <r>    2.0748    1.0000 </r>
       <r>    2.1319    1.0000 </r>
       <r>    2.2096    1.0000 </r>
       <r>    2.2334    1.0000 </r>
       <r>    2.2926    1.0000 </r>
       <r>    2.3762    1.0000 </r>
       <r>    2.4384    1.0000 </r>
       <r>    2.4688    1.0000 </r>
       <r>    2.5027    1.0000 </r>
       <r>    2.5487    1.0000 </r>
       <r>    2.6104    1.0000 </r>
       <r>    2.7158    1.0000 </r>
       <r>    2.8088    1.0000 </r>
       <r>    2.8545    1.0000 </r>
       <r>    2.8911    1.0000 </r>
       <r>    2.9643    1.0000 </r>
       <r>    2.9887    1.0000 </r>
       <r>    3.0407    1.0000 </r>
       <r>    3.0890    1.0000 </r>
       <r>    3.1349    1.0000 </r>
       <r>    3.1829    1.0000 </r>
       <r>    3.3465    1.0000 </r>
       <r>    3.4295    1.0000 </r>
       <r>    3.5319    1.0000 </r>
       <r>    3.8459    1.0000 </r>
       <r>    3.9326    1.0000 </r>
       <r>    4.7100    1.0000 </r>
       <r>    4.8084    1.0000 </r>
       <r>    5.1911    1.0000 </r>
       <r>    5.7181    1.0000 </r>
       <r>    6.0585    1.0000 </r>
       <r>    6.3529    1.0000 </r>
       <r>    6.6262    1.0000 </r>
       <r>    6.6793    1.0000 </r>
       <r>    6.7862   -0.0000 </r>
       <r>    8.1308    0.0000 </r>
       <r>    9.3425    0.0000 </r>
       <r>    9.6279    0.0000 </r>
       <r>   10.0539    0.0000 </r>
       <r>   11.1191    0.0000 </r>
       <r>   11.4633    0.0000 </r>
       <r>   11.7870    0.0000 </r>
       <r>   12.0322    0.0000 </r>
       <r>   12.3683    0.0000 </r>
       <r>   13.1463    0.0000 </r>
       <r>   13.3826    0.0000 </r>
      </set>
      <set comment="kpoint 119">
       <r>   -6.6735    1.0000 </r>
       <r>   -6.1919    1.0000 </r>
       <r>   -6.0389    1.0000 </r>
       <r>   -5.9531    1.0000 </r>
       <r>    0.4811    1.0000 </r>
       <r>    0.5586    1.0000 </r>
       <r>    0.5785    1.0000 </r>
       <r>    0.7418    1.0000 </r>
       <r>    0.8074    1.0000 </r>
       <r>    1.0623    1.0000 </r>
       <r>    1.0843    1.0000 </r>
       <r>    1.1553    1.0000 </r>
       <r>    1.2106    1.0000 </r>
       <r>    1.2779    1.0000 </r>
       <r>    1.4984    1.0000 </r>
       <r>    1.5496    1.0000 </r>
       <r>    1.6165    1.0000 </r>
       <r>    1.6598    1.0000 </r>
       <r>    1.7421    1.0000 </r>
       <r>    1.7899    1.0000 </r>
       <r>    1.9750    1.0000 </r>
       <r>    2.0422    1.0000 </r>
       <r>    2.0810    1.0000 </r>
       <r>    2.1390    1.0000 </r>
       <r>    2.2312    1.0000 </r>
       <r>    2.2634    1.0000 </r>
       <r>    2.2823    1.0000 </r>
       <r>    2.3460    1.0000 </r>
       <r>    2.4177    1.0000 </r>
       <r>    2.4669    1.0000 </r>
       <r>    2.5015    1.0000 </r>
       <r>    2.5542    1.0000 </r>
       <r>    2.6059    1.0000 </r>
       <r>    2.6993    1.0000 </r>
       <r>    2.8129    1.0000 </r>
       <r>    2.8520    1.0000 </r>
       <r>    2.8937    1.0000 </r>
       <r>    2.9717    1.0000 </r>
       <r>    2.9921    1.0000 </r>
       <r>    3.0471    1.0000 </r>
       <r>    3.0920    1.0000 </r>
       <r>    3.1354    1.0000 </r>
       <r>    3.2293    1.0000 </r>
       <r>    3.3575    1.0000 </r>
       <r>    3.3951    1.0000 </r>
       <r>    3.5262    1.0000 </r>
       <r>    3.8150    1.0000 </r>
       <r>    3.9056    1.0000 </r>
       <r>    4.7047    1.0000 </r>
       <r>    4.8770    1.0000 </r>
       <r>    5.2484    1.0000 </r>
       <r>    5.7202    1.0000 </r>
       <r>    6.1472    1.0000 </r>
       <r>    6.3958    1.0000 </r>
       <r>    6.5809    1.0000 </r>
       <r>    6.7257    1.0069 </r>
       <r>    6.7539    0.0170 </r>
       <r>    8.0275    0.0000 </r>
       <r>    9.2946    0.0000 </r>
       <r>    9.5126    0.0000 </r>
       <r>   10.0498    0.0000 </r>
       <r>   11.1559    0.0000 </r>
       <r>   11.4937    0.0000 </r>
       <r>   11.8164    0.0000 </r>
       <r>   12.0559    0.0000 </r>
       <r>   12.4099    0.0000 </r>
       <r>   13.1931    0.0000 </r>
       <r>   13.3322    0.0000 </r>
      </set>
      <set comment="kpoint 120">
       <r>   -6.6759    1.0000 </r>
       <r>   -6.1926    1.0000 </r>
       <r>   -6.0394    1.0000 </r>
       <r>   -5.9534    1.0000 </r>
       <r>    0.4808    1.0000 </r>
       <r>    0.5575    1.0000 </r>
       <r>    0.5753    1.0000 </r>
       <r>    0.7569    1.0000 </r>
       <r>    0.7855    1.0000 </r>
       <r>    1.0667    1.0000 </r>
       <r>    1.0850    1.0000 </r>
       <r>    1.1549    1.0000 </r>
       <r>    1.2083    1.0000 </r>
       <r>    1.2794    1.0000 </r>
       <r>    1.4945    1.0000 </r>
       <r>    1.5494    1.0000 </r>
       <r>    1.6190    1.0000 </r>
       <r>    1.6548    1.0000 </r>
       <r>    1.7412    1.0000 </r>
       <r>    1.7893    1.0000 </r>
       <r>    1.9765    1.0000 </r>
       <r>    2.0468    1.0000 </r>
       <r>    2.0842    1.0000 </r>
       <r>    2.1411    1.0000 </r>
       <r>    2.2471    1.0000 </r>
       <r>    2.2701    1.0000 </r>
       <r>    2.2849    1.0000 </r>
       <r>    2.3277    1.0000 </r>
       <r>    2.4055    1.0000 </r>
       <r>    2.4679    1.0000 </r>
       <r>    2.5015    1.0000 </r>
       <r>    2.5583    1.0000 </r>
       <r>    2.6028    1.0000 </r>
       <r>    2.6932    1.0000 </r>
       <r>    2.8143    1.0000 </r>
       <r>    2.8511    1.0000 </r>
       <r>    2.8944    1.0000 </r>
       <r>    2.9745    1.0000 </r>
       <r>    2.9934    1.0000 </r>
       <r>    3.0495    1.0000 </r>
       <r>    3.0926    1.0000 </r>
       <r>    3.1356    1.0000 </r>
       <r>    3.2536    1.0000 </r>
       <r>    3.3605    1.0000 </r>
       <r>    3.3766    1.0000 </r>
       <r>    3.5243    1.0000 </r>
       <r>    3.8043    1.0000 </r>
       <r>    3.8963    1.0000 </r>
       <r>    4.7026    1.0000 </r>
       <r>    4.9012    1.0000 </r>
       <r>    5.2688    1.0000 </r>
       <r>    5.7208    1.0000 </r>
       <r>    6.1790    1.0000 </r>
       <r>    6.4198    1.0000 </r>
       <r>    6.5472    1.0000 </r>
       <r>    6.7384    0.9840 </r>
       <r>    6.7548   -0.0054 </r>
       <r>    7.9903    0.0000 </r>
       <r>    9.2822    0.0000 </r>
       <r>    9.4677    0.0000 </r>
       <r>   10.0487    0.0000 </r>
       <r>   11.1683    0.0000 </r>
       <r>   11.5037    0.0000 </r>
       <r>   11.8258    0.0000 </r>
       <r>   12.0655    0.0000 </r>
       <r>   12.4262    0.0000 </r>
       <r>   13.2087    0.0000 </r>
       <r>   13.3115    0.0000 </r>
      </set>
      <set comment="kpoint 121">
       <r>   -6.6759    1.0000 </r>
       <r>   -6.1926    1.0000 </r>
       <r>   -6.0394    1.0000 </r>
       <r>   -5.9534    1.0000 </r>
       <r>    0.4808    1.0000 </r>
       <r>    0.5575    1.0000 </r>
       <r>    0.5753    1.0000 </r>
       <r>    0.7569    1.0000 </r>
       <r>    0.7855    1.0000 </r>
       <r>    1.0667    1.0000 </r>
       <r>    1.0850    1.0000 </r>
       <r>    1.1549    1.0000 </r>
       <r>    1.2083    1.0000 </r>
       <r>    1.2794    1.0000 </r>
       <r>    1.4945    1.0000 </r>
       <r>    1.5494    1.0000 </r>
       <r>    1.6190    1.0000 </r>
       <r>    1.6548    1.0000 </r>
       <r>    1.7412    1.0000 </r>
       <r>    1.7893    1.0000 </r>
       <r>    1.9765    1.0000 </r>
       <r>    2.0468    1.0000 </r>
       <r>    2.0842    1.0000 </r>
       <r>    2.1411    1.0000 </r>
       <r>    2.2471    1.0000 </r>
       <r>    2.2701    1.0000 </r>
       <r>    2.2849    1.0000 </r>
       <r>    2.3277    1.0000 </r>
       <r>    2.4055    1.0000 </r>
       <r>    2.4679    1.0000 </r>
       <r>    2.5015    1.0000 </r>
       <r>    2.5583    1.0000 </r>
       <r>    2.6028    1.0000 </r>
       <r>    2.6932    1.0000 </r>
       <r>    2.8143    1.0000 </r>
       <r>    2.8511    1.0000 </r>
       <r>    2.8944    1.0000 </r>
       <r>    2.9745    1.0000 </r>
       <r>    2.9934    1.0000 </r>
       <r>    3.0495    1.0000 </r>
       <r>    3.0926    1.0000 </r>
       <r>    3.1356    1.0000 </r>
       <r>    3.2536    1.0000 </r>
       <r>    3.3605    1.0000 </r>
       <r>    3.3766    1.0000 </r>
       <r>    3.5243    1.0000 </r>
       <r>    3.8043    1.0000 </r>
       <r>    3.8963    1.0000 </r>
       <r>    4.7026    1.0000 </r>
       <r>    4.9012    1.0000 </r>
       <r>    5.2688    1.0000 </r>
       <r>    5.7208    1.0000 </r>
       <r>    6.1790    1.0000 </r>
       <r>    6.4198    1.0000 </r>
       <r>    6.5472    1.0000 </r>
       <r>    6.7384    0.9840 </r>
       <r>    6.7548   -0.0054 </r>
       <r>    7.9903    0.0000 </r>
       <r>    9.2822    0.0000 </r>
       <r>    9.4677    0.0000 </r>
       <r>   10.0487    0.0000 </r>
       <r>   11.1683    0.0000 </r>
       <r>   11.5037    0.0000 </r>
       <r>   11.8258    0.0000 </r>
       <r>   12.0655    0.0000 </r>
       <r>   12.4262    0.0000 </r>
       <r>   13.2087    0.0000 </r>
       <r>   13.3120    0.0000 </r>
      </set>
      <set comment="kpoint 122">
       <r>   -6.6723    1.0000 </r>
       <r>   -6.1919    1.0000 </r>
       <r>   -6.0397    1.0000 </r>
       <r>   -5.9535    1.0000 </r>
       <r>    0.4789    1.0000 </r>
       <r>    0.5555    1.0000 </r>
       <r>    0.5839    1.0000 </r>
       <r>    0.7245    1.0000 </r>
       <r>    0.8246    1.0000 </r>
       <r>    1.0623    1.0000 </r>
       <r>    1.0826    1.0000 </r>
       <r>    1.1535    1.0000 </r>
       <r>    1.2128    1.0000 </r>
       <r>    1.2809    1.0000 </r>
       <r>    1.4990    1.0000 </r>
       <r>    1.5485    1.0000 </r>
       <r>    1.6137    1.0000 </r>
       <r>    1.6632    1.0000 </r>
       <r>    1.7328    1.0000 </r>
       <r>    1.8014    1.0000 </r>
       <r>    1.9735    1.0000 </r>
       <r>    2.0449    1.0000 </r>
       <r>    2.0695    1.0000 </r>
       <r>    2.1306    1.0000 </r>
       <r>    2.2369    1.0000 </r>
       <r>    2.2779    1.0000 </r>
       <r>    2.2831    1.0000 </r>
       <r>    2.3354    1.0000 </r>
       <r>    2.4121    1.0000 </r>
       <r>    2.4686    1.0000 </r>
       <r>    2.5100    1.0000 </r>
       <r>    2.5521    1.0000 </r>
       <r>    2.6072    1.0000 </r>
       <r>    2.6973    1.0000 </r>
       <r>    2.8124    1.0000 </r>
       <r>    2.8503    1.0000 </r>
       <r>    2.8934    1.0000 </r>
       <r>    2.9710    1.0000 </r>
       <r>    2.9921    1.0000 </r>
       <r>    3.0466    1.0000 </r>
       <r>    3.0915    1.0000 </r>
       <r>    3.1310    1.0000 </r>
       <r>    3.2451    1.0000 </r>
       <r>    3.3546    1.0000 </r>
       <r>    3.3910    1.0000 </r>
       <r>    3.5301    1.0000 </r>
       <r>    3.7737    1.0000 </r>
       <r>    3.9435    1.0000 </r>
       <r>    4.7004    1.0000 </r>
       <r>    4.8940    1.0000 </r>
       <r>    5.2452    1.0000 </r>
       <r>    5.7171    1.0000 </r>
       <r>    6.1683    1.0000 </r>
       <r>    6.3562    1.0000 </r>
       <r>    6.6033    1.0000 </r>
       <r>    6.7230    1.0026 </r>
       <r>    6.7628   -0.0202 </r>
       <r>    8.0337    0.0000 </r>
       <r>    9.2757    0.0000 </r>
       <r>    9.4909    0.0000 </r>
       <r>   10.0717    0.0000 </r>
       <r>   11.1584    0.0000 </r>
       <r>   11.4869    0.0000 </r>
       <r>   11.8141    0.0000 </r>
       <r>   12.0388    0.0000 </r>
       <r>   12.3924    0.0000 </r>
       <r>   13.1942    0.0000 </r>
       <r>   13.3398    0.0000 </r>
      </set>
      <set comment="kpoint 123">
       <r>   -6.6616    1.0000 </r>
       <r>   -6.1900    1.0000 </r>
       <r>   -6.0405    1.0000 </r>
       <r>   -5.9540    1.0000 </r>
       <r>    0.4743    1.0000 </r>
       <r>    0.5539    1.0000 </r>
       <r>    0.6020    1.0000 </r>
       <r>    0.6935    1.0000 </r>
       <r>    0.8751    1.0000 </r>
       <r>    1.0518    1.0000 </r>
       <r>    1.0741    1.0000 </r>
       <r>    1.1515    1.0000 </r>
       <r>    1.2263    1.0000 </r>
       <r>    1.2842    1.0000 </r>
       <r>    1.5092    1.0000 </r>
       <r>    1.5460    1.0000 </r>
       <r>    1.6073    1.0000 </r>
       <r>    1.6761    1.0000 </r>
       <r>    1.7250    1.0000 </r>
       <r>    1.8244    1.0000 </r>
       <r>    1.9631    1.0000 </r>
       <r>    2.0154    1.0000 </r>
       <r>    2.0591    1.0000 </r>
       <r>    2.1048    1.0000 </r>
       <r>    2.2227    1.0000 </r>
       <r>    2.2735    1.0000 </r>
       <r>    2.2891    1.0000 </r>
       <r>    2.3585    1.0000 </r>
       <r>    2.4215    1.0000 </r>
       <r>    2.4669    1.0000 </r>
       <r>    2.5233    1.0000 </r>
       <r>    2.5535    1.0000 </r>
       <r>    2.6155    1.0000 </r>
       <r>    2.7084    1.0000 </r>
       <r>    2.8047    1.0000 </r>
       <r>    2.8493    1.0000 </r>
       <r>    2.8906    1.0000 </r>
       <r>    2.9615    1.0000 </r>
       <r>    2.9878    1.0000 </r>
       <r>    3.0384    1.0000 </r>
       <r>    3.0867    1.0000 </r>
       <r>    3.1190    1.0000 </r>
       <r>    3.2312    1.0000 </r>
       <r>    3.3394    1.0000 </r>
       <r>    3.4244    1.0000 </r>
       <r>    3.5443    1.0000 </r>
       <r>    3.7316    1.0000 </r>
       <r>    4.0325    1.0000 </r>
       <r>    4.6888    1.0000 </r>
       <r>    4.8775    1.0000 </r>
       <r>    5.1839    1.0000 </r>
       <r>    5.7040    1.0000 </r>
       <r>    6.1193    1.0000 </r>
       <r>    6.2679    1.0000 </r>
       <r>    6.6242    1.0000 </r>
       <r>    6.7135    1.0000 </r>
       <r>    6.8197   -0.0000 </r>
       <r>    8.1530    0.0000 </r>
       <r>    9.2571    0.0000 </r>
       <r>    9.5569    0.0000 </r>
       <r>   10.1362    0.0000 </r>
       <r>   11.1326    0.0000 </r>
       <r>   11.4373    0.0000 </r>
       <r>   11.7764    0.0000 </r>
       <r>   11.9695    0.0000 </r>
       <r>   12.2964    0.0000 </r>
       <r>   13.1411    0.0000 </r>
       <r>   13.3997    0.0000 </r>
      </set>
      <set comment="kpoint 124">
       <r>   -6.6439    1.0000 </r>
       <r>   -6.1868    1.0000 </r>
       <r>   -6.0419    1.0000 </r>
       <r>   -5.9548    1.0000 </r>
       <r>    0.4692    1.0000 </r>
       <r>    0.5545    1.0000 </r>
       <r>    0.6188    1.0000 </r>
       <r>    0.6831    1.0000 </r>
       <r>    0.9172    1.0000 </r>
       <r>    1.0290    1.0000 </r>
       <r>    1.0744    1.0000 </r>
       <r>    1.1517    1.0000 </r>
       <r>    1.2453    1.0000 </r>
       <r>    1.2882    1.0000 </r>
       <r>    1.5166    1.0000 </r>
       <r>    1.5403    1.0000 </r>
       <r>    1.6120    1.0000 </r>
       <r>    1.6774    1.0000 </r>
       <r>    1.7371    1.0000 </r>
       <r>    1.8482    1.0000 </r>
       <r>    1.9329    1.0000 </r>
       <r>    1.9791    1.0000 </r>
       <r>    2.0541    1.0000 </r>
       <r>    2.0787    1.0000 </r>
       <r>    2.2086    1.0000 </r>
       <r>    2.2627    1.0000 </r>
       <r>    2.3008    1.0000 </r>
       <r>    2.3843    1.0000 </r>
       <r>    2.4279    1.0000 </r>
       <r>    2.4549    1.0000 </r>
       <r>    2.5279    1.0000 </r>
       <r>    2.5777    1.0000 </r>
       <r>    2.6266    1.0000 </r>
       <r>    2.7228    1.0000 </r>
       <r>    2.7903    1.0000 </r>
       <r>    2.8486    1.0000 </r>
       <r>    2.8864    1.0000 </r>
       <r>    2.9480    1.0000 </r>
       <r>    2.9799    1.0000 </r>
       <r>    3.0276    1.0000 </r>
       <r>    3.0738    1.0000 </r>
       <r>    3.1077    1.0000 </r>
       <r>    3.2212    1.0000 </r>
       <r>    3.3200    1.0000 </r>
       <r>    3.4649    1.0000 </r>
       <r>    3.5612    1.0000 </r>
       <r>    3.6981    1.0000 </r>
       <r>    4.1354    1.0000 </r>
       <r>    4.6565    1.0000 </r>
       <r>    4.8624    1.0000 </r>
       <r>    5.1093    1.0000 </r>
       <r>    5.6709    1.0000 </r>
       <r>    6.0254    1.0000 </r>
       <r>    6.2037    1.0000 </r>
       <r>    6.5518    1.0000 </r>
       <r>    6.7114    1.0000 </r>
       <r>    6.9620   -0.0000 </r>
       <r>    8.3250    0.0000 </r>
       <r>    9.2303    0.0000 </r>
       <r>    9.6512    0.0000 </r>
       <r>   10.2321    0.0000 </r>
       <r>   11.1016    0.0000 </r>
       <r>   11.3575    0.0000 </r>
       <r>   11.7066    0.0000 </r>
       <r>   11.8779    0.0000 </r>
       <r>   12.1553    0.0000 </r>
       <r>   13.0234    0.0000 </r>
       <r>   13.4201    0.0000 </r>
      </set>
      <set comment="kpoint 125">
       <r>   -6.6198    1.0000 </r>
       <r>   -6.1823    1.0000 </r>
       <r>   -6.0436    1.0000 </r>
       <r>   -5.9559    1.0000 </r>
       <r>    0.4652    1.0000 </r>
       <r>    0.5572    1.0000 </r>
       <r>    0.6265    1.0000 </r>
       <r>    0.6984    1.0000 </r>
       <r>    0.9394    1.0000 </r>
       <r>    0.9964    1.0000 </r>
       <r>    1.0936    1.0000 </r>
       <r>    1.1578    1.0000 </r>
       <r>    1.2601    1.0000 </r>
       <r>    1.2972    1.0000 </r>
       <r>    1.5160    1.0000 </r>
       <r>    1.5274    1.0000 </r>
       <r>    1.6335    1.0000 </r>
       <r>    1.6744    1.0000 </r>
       <r>    1.7625    1.0000 </r>
       <r>    1.8621    1.0000 </r>
       <r>    1.8892    1.0000 </r>
       <r>    1.9613    1.0000 </r>
       <r>    2.0261    1.0000 </r>
       <r>    2.0745    1.0000 </r>
       <r>    2.1929    1.0000 </r>
       <r>    2.2538    1.0000 </r>
       <r>    2.3144    1.0000 </r>
       <r>    2.4001    1.0000 </r>
       <r>    2.4328    1.0000 </r>
       <r>    2.4417    1.0000 </r>
       <r>    2.5372    1.0000 </r>
       <r>    2.5973    1.0000 </r>
       <r>    2.6433    1.0000 </r>
       <r>    2.7343    1.0000 </r>
       <r>    2.7736    1.0000 </r>
       <r>    2.8454    1.0000 </r>
       <r>    2.8814    1.0000 </r>
       <r>    2.9330    1.0000 </r>
       <r>    2.9698    1.0000 </r>
       <r>    3.0187    1.0000 </r>
       <r>    3.0538    1.0000 </r>
       <r>    3.1015    1.0000 </r>
       <r>    3.2124    1.0000 </r>
       <r>    3.3002    1.0000 </r>
       <r>    3.5064    1.0000 </r>
       <r>    3.5776    1.0000 </r>
       <r>    3.6766    1.0000 </r>
       <r>    4.2368    1.0000 </r>
       <r>    4.6023    1.0000 </r>
       <r>    4.8410    1.0000 </r>
       <r>    5.0579    1.0000 </r>
       <r>    5.5961    1.0000 </r>
       <r>    5.9419    1.0000 </r>
       <r>    6.1373    1.0000 </r>
       <r>    6.4587    1.0000 </r>
       <r>    6.6976    1.0000 </r>
       <r>    7.1424    0.0000 </r>
       <r>    8.5277    0.0000 </r>
       <r>    9.2005    0.0000 </r>
       <r>    9.7480    0.0000 </r>
       <r>   10.3474    0.0000 </r>
       <r>   11.0787    0.0000 </r>
       <r>   11.2513    0.0000 </r>
       <r>   11.5993    0.0000 </r>
       <r>   11.7794    0.0000 </r>
       <r>   11.9988    0.0000 </r>
       <r>   12.8252    0.0000 </r>
       <r>   13.3233    0.0000 </r>
      </set>
      <set comment="kpoint 126">
       <r>   -6.5898    1.0000 </r>
       <r>   -6.1768    1.0000 </r>
       <r>   -6.0455    1.0000 </r>
       <r>   -5.9573    1.0000 </r>
       <r>    0.4638    1.0000 </r>
       <r>    0.5618    1.0000 </r>
       <r>    0.6341    1.0000 </r>
       <r>    0.7241    1.0000 </r>
       <r>    0.9311    1.0000 </r>
       <r>    0.9775    1.0000 </r>
       <r>    1.1172    1.0000 </r>
       <r>    1.1771    1.0000 </r>
       <r>    1.2629    1.0000 </r>
       <r>    1.3149    1.0000 </r>
       <r>    1.5020    1.0000 </r>
       <r>    1.5178    1.0000 </r>
       <r>    1.6574    1.0000 </r>
       <r>    1.6814    1.0000 </r>
       <r>    1.7886    1.0000 </r>
       <r>    1.8275    1.0000 </r>
       <r>    1.8922    1.0000 </r>
       <r>    1.9469    1.0000 </r>
       <r>    1.9968    1.0000 </r>
       <r>    2.0764    1.0000 </r>
       <r>    2.1745    1.0000 </r>
       <r>    2.2487    1.0000 </r>
       <r>    2.3267    1.0000 </r>
       <r>    2.3975    1.0000 </r>
       <r>    2.4344    1.0000 </r>
       <r>    2.4470    1.0000 </r>
       <r>    2.5487    1.0000 </r>
       <r>    2.6089    1.0000 </r>
       <r>    2.6596    1.0000 </r>
       <r>    2.7335    1.0000 </r>
       <r>    2.7650    1.0000 </r>
       <r>    2.8378    1.0000 </r>
       <r>    2.8734    1.0000 </r>
       <r>    2.9195    1.0000 </r>
       <r>    2.9597    1.0000 </r>
       <r>    3.0158    1.0000 </r>
       <r>    3.0338    1.0000 </r>
       <r>    3.0970    1.0000 </r>
       <r>    3.2004    1.0000 </r>
       <r>    3.2818    1.0000 </r>
       <r>    3.5353    1.0000 </r>
       <r>    3.6013    1.0000 </r>
       <r>    3.6701    1.0000 </r>
       <r>    4.3069    1.0000 </r>
       <r>    4.5538    1.0000 </r>
       <r>    4.7881    1.0000 </r>
       <r>    5.0632    1.0000 </r>
       <r>    5.4771    1.0000 </r>
       <r>    5.8954    1.0000 </r>
       <r>    6.0515    1.0000 </r>
       <r>    6.3703    1.0000 </r>
       <r>    6.6766    1.0000 </r>
       <r>    7.3381    0.0000 </r>
       <r>    8.7437    0.0000 </r>
       <r>    9.1720    0.0000 </r>
       <r>    9.8191    0.0000 </r>
       <r>   10.4654    0.0000 </r>
       <r>   11.0502    0.0000 </r>
       <r>   11.1419    0.0000 </r>
       <r>   11.4592    0.0000 </r>
       <r>   11.6899    0.0000 </r>
       <r>   11.8617    0.0000 </r>
       <r>   12.5876    0.0000 </r>
       <r>   13.2053    0.0000 </r>
      </set>
      <set comment="kpoint 127">
       <r>   -6.5546    1.0000 </r>
       <r>   -6.1702    1.0000 </r>
       <r>   -6.0473    1.0000 </r>
       <r>   -5.9591    1.0000 </r>
       <r>    0.4664    1.0000 </r>
       <r>    0.5676    1.0000 </r>
       <r>    0.6477    1.0000 </r>
       <r>    0.7419    1.0000 </r>
       <r>    0.9042    1.0000 </r>
       <r>    0.9825    1.0000 </r>
       <r>    1.1295    1.0000 </r>
       <r>    1.2101    1.0000 </r>
       <r>    1.2621    1.0000 </r>
       <r>    1.3324    1.0000 </r>
       <r>    1.4739    1.0000 </r>
       <r>    1.5213    1.0000 </r>
       <r>    1.6662    1.0000 </r>
       <r>    1.7044    1.0000 </r>
       <r>    1.7880    1.0000 </r>
       <r>    1.8145    1.0000 </r>
       <r>    1.8958    1.0000 </r>
       <r>    1.9327    1.0000 </r>
       <r>    1.9837    1.0000 </r>
       <r>    2.0794    1.0000 </r>
       <r>    2.1544    1.0000 </r>
       <r>    2.2460    1.0000 </r>
       <r>    2.3325    1.0000 </r>
       <r>    2.3935    1.0000 </r>
       <r>    2.4323    1.0000 </r>
       <r>    2.4626    1.0000 </r>
       <r>    2.5578    1.0000 </r>
       <r>    2.6181    1.0000 </r>
       <r>    2.6656    1.0000 </r>
       <r>    2.7249    1.0000 </r>
       <r>    2.7677    1.0000 </r>
       <r>    2.8257    1.0000 </r>
       <r>    2.8592    1.0000 </r>
       <r>    2.9096    1.0000 </r>
       <r>    2.9488    1.0000 </r>
       <r>    3.0073    1.0000 </r>
       <r>    3.0319    1.0000 </r>
       <r>    3.0919    1.0000 </r>
       <r>    3.1837    1.0000 </r>
       <r>    3.2663    1.0000 </r>
       <r>    3.5366    1.0000 </r>
       <r>    3.6437    1.0000 </r>
       <r>    3.6793    1.0000 </r>
       <r>    4.2977    1.0000 </r>
       <r>    4.5600    1.0000 </r>
       <r>    4.7172    1.0000 </r>
       <r>    5.1026    1.0000 </r>
       <r>    5.3494    1.0000 </r>
       <r>    5.8541    1.0000 </r>
       <r>    5.9645    1.0000 </r>
       <r>    6.2969    1.0000 </r>
       <r>    6.6503    1.0000 </r>
       <r>    7.5360    0.0000 </r>
       <r>    8.9547    0.0000 </r>
       <r>    9.1523    0.0000 </r>
       <r>    9.8484    0.0000 </r>
       <r>   10.5537    0.0000 </r>
       <r>   10.9154    0.0000 </r>
       <r>   11.1108    0.0000 </r>
       <r>   11.3199    0.0000 </r>
       <r>   11.6350    0.0000 </r>
       <r>   11.7698    0.0000 </r>
       <r>   12.3628    0.0000 </r>
       <r>   13.0605    0.0000 </r>
      </set>
      <set comment="kpoint 128">
       <r>   -6.5152    1.0000 </r>
       <r>   -6.1627    1.0000 </r>
       <r>   -6.0488    1.0000 </r>
       <r>   -5.9612    1.0000 </r>
       <r>    0.4729    1.0000 </r>
       <r>    0.5743    1.0000 </r>
       <r>    0.6660    1.0000 </r>
       <r>    0.7356    1.0000 </r>
       <r>    0.8947    1.0000 </r>
       <r>    0.9983    1.0000 </r>
       <r>    1.1333    1.0000 </r>
       <r>    1.2282    1.0000 </r>
       <r>    1.2796    1.0000 </r>
       <r>    1.3451    1.0000 </r>
       <r>    1.4420    1.0000 </r>
       <r>    1.5325    1.0000 </r>
       <r>    1.6719    1.0000 </r>
       <r>    1.7211    1.0000 </r>
       <r>    1.7614    1.0000 </r>
       <r>    1.8272    1.0000 </r>
       <r>    1.8956    1.0000 </r>
       <r>    1.9195    1.0000 </r>
       <r>    1.9905    1.0000 </r>
       <r>    2.0841    1.0000 </r>
       <r>    2.1342    1.0000 </r>
       <r>    2.2431    1.0000 </r>
       <r>    2.3340    1.0000 </r>
       <r>    2.3952    1.0000 </r>
       <r>    2.4272    1.0000 </r>
       <r>    2.4807    1.0000 </r>
       <r>    2.5554    1.0000 </r>
       <r>    2.6295    1.0000 </r>
       <r>    2.6632    1.0000 </r>
       <r>    2.7194    1.0000 </r>
       <r>    2.7751    1.0000 </r>
       <r>    2.8106    1.0000 </r>
       <r>    2.8421    1.0000 </r>
       <r>    2.9012    1.0000 </r>
       <r>    2.9355    1.0000 </r>
       <r>    2.9917    1.0000 </r>
       <r>    3.0448    1.0000 </r>
       <r>    3.0870    1.0000 </r>
       <r>    3.1655    1.0000 </r>
       <r>    3.2549    1.0000 </r>
       <r>    3.5238    1.0000 </r>
       <r>    3.6667    1.0000 </r>
       <r>    3.7223    1.0000 </r>
       <r>    4.2330    1.0000 </r>
       <r>    4.5810    1.0000 </r>
       <r>    4.6703    1.0000 </r>
       <r>    5.0994    1.0000 </r>
       <r>    5.2786    1.0000 </r>
       <r>    5.7744    1.0000 </r>
       <r>    5.9241    1.0000 </r>
       <r>    6.2389    1.0000 </r>
       <r>    6.6189    1.0000 </r>
       <r>    7.7244    0.0000 </r>
       <r>    9.0780    0.0000 </r>
       <r>    9.2133    0.0000 </r>
       <r>    9.8412    0.0000 </r>
       <r>   10.5612    0.0000 </r>
       <r>   10.7406    0.0000 </r>
       <r>   11.0426    0.0000 </r>
       <r>   11.2495    0.0000 </r>
       <r>   11.5815    0.0000 </r>
       <r>   11.7959    0.0000 </r>
       <r>   12.1867    0.0000 </r>
       <r>   12.9074    0.0000 </r>
      </set>
      <set comment="kpoint 129">
       <r>   -6.4727    1.0000 </r>
       <r>   -6.1545    1.0000 </r>
       <r>   -6.0499    1.0000 </r>
       <r>   -5.9635    1.0000 </r>
       <r>    0.4807    1.0000 </r>
       <r>    0.5833    1.0000 </r>
       <r>    0.6717    1.0000 </r>
       <r>    0.7219    1.0000 </r>
       <r>    0.9079    1.0000 </r>
       <r>    1.0210    1.0000 </r>
       <r>    1.1320    1.0000 </r>
       <r>    1.2221    1.0000 </r>
       <r>    1.3174    1.0000 </r>
       <r>    1.3567    1.0000 </r>
       <r>    1.4123    1.0000 </r>
       <r>    1.5437    1.0000 </r>
       <r>    1.6798    1.0000 </r>
       <r>    1.7239    1.0000 </r>
       <r>    1.7391    1.0000 </r>
       <r>    1.8337    1.0000 </r>
       <r>    1.8958    1.0000 </r>
       <r>    1.9180    1.0000 </r>
       <r>    2.0049    1.0000 </r>
       <r>    2.0904    1.0000 </r>
       <r>    2.1169    1.0000 </r>
       <r>    2.2379    1.0000 </r>
       <r>    2.3360    1.0000 </r>
       <r>    2.3953    1.0000 </r>
       <r>    2.4269    1.0000 </r>
       <r>    2.4956    1.0000 </r>
       <r>    2.5368    1.0000 </r>
       <r>    2.6430    1.0000 </r>
       <r>    2.6615    1.0000 </r>
       <r>    2.7194    1.0000 </r>
       <r>    2.7756    1.0000 </r>
       <r>    2.7983    1.0000 </r>
       <r>    2.8280    1.0000 </r>
       <r>    2.8914    1.0000 </r>
       <r>    2.9225    1.0000 </r>
       <r>    2.9801    1.0000 </r>
       <r>    3.0458    1.0000 </r>
       <r>    3.0883    1.0000 </r>
       <r>    3.1506    1.0000 </r>
       <r>    3.2503    1.0000 </r>
       <r>    3.5062    1.0000 </r>
       <r>    3.6643    1.0000 </r>
       <r>    3.7835    1.0000 </r>
       <r>    4.1676    1.0000 </r>
       <r>    4.5380    1.0000 </r>
       <r>    4.6855    1.0000 </r>
       <r>    5.0246    1.0000 </r>
       <r>    5.2698    1.0000 </r>
       <r>    5.7067    1.0000 </r>
       <r>    5.9104    1.0000 </r>
       <r>    6.1944    1.0000 </r>
       <r>    6.5824    1.0000 </r>
       <r>    7.8919    0.0000 </r>
       <r>    9.0752    0.0000 </r>
       <r>    9.3786    0.0000 </r>
       <r>    9.8144    0.0000 </r>
       <r>   10.4293    0.0000 </r>
       <r>   10.6230    0.0000 </r>
       <r>   10.9317    0.0000 </r>
       <r>   11.2129    0.0000 </r>
       <r>   11.5227    0.0000 </r>
       <r>   11.9286    0.0000 </r>
       <r>   12.0984    0.0000 </r>
       <r>   12.7680    0.0000 </r>
      </set>
      <set comment="kpoint 130">
       <r>   -6.4283    1.0000 </r>
       <r>   -6.1457    1.0000 </r>
       <r>   -6.0504    1.0000 </r>
       <r>   -5.9660    1.0000 </r>
       <r>    0.4844    1.0000 </r>
       <r>    0.5976    1.0000 </r>
       <r>    0.6366    1.0000 </r>
       <r>    0.7453    1.0000 </r>
       <r>    0.9307    1.0000 </r>
       <r>    1.0447    1.0000 </r>
       <r>    1.1293    1.0000 </r>
       <r>    1.2092    1.0000 </r>
       <r>    1.3409    1.0000 </r>
       <r>    1.3782    1.0000 </r>
       <r>    1.3987    1.0000 </r>
       <r>    1.5406    1.0000 </r>
       <r>    1.6917    1.0000 </r>
       <r>    1.7075    1.0000 </r>
       <r>    1.7392    1.0000 </r>
       <r>    1.8366    1.0000 </r>
       <r>    1.8875    1.0000 </r>
       <r>    1.9329    1.0000 </r>
       <r>    2.0162    1.0000 </r>
       <r>    2.0925    1.0000 </r>
       <r>    2.1113    1.0000 </r>
       <r>    2.2294    1.0000 </r>
       <r>    2.3375    1.0000 </r>
       <r>    2.3909    1.0000 </r>
       <r>    2.4360    1.0000 </r>
       <r>    2.4969    1.0000 </r>
       <r>    2.5176    1.0000 </r>
       <r>    2.6404    1.0000 </r>
       <r>    2.6710    1.0000 </r>
       <r>    2.7259    1.0000 </r>
       <r>    2.7652    1.0000 </r>
       <r>    2.7876    1.0000 </r>
       <r>    2.8232    1.0000 </r>
       <r>    2.8771    1.0000 </r>
       <r>    2.9146    1.0000 </r>
       <r>    2.9739    1.0000 </r>
       <r>    3.0339    1.0000 </r>
       <r>    3.0882    1.0000 </r>
       <r>    3.1422    1.0000 </r>
       <r>    3.2548    1.0000 </r>
       <r>    3.4886    1.0000 </r>
       <r>    3.6429    1.0000 </r>
       <r>    3.8374    1.0000 </r>
       <r>    4.1274    1.0000 </r>
       <r>    4.4820    1.0000 </r>
       <r>    4.6851    1.0000 </r>
       <r>    4.9739    1.0000 </r>
       <r>    5.2191    1.0000 </r>
       <r>    5.7020    1.0000 </r>
       <r>    5.9000    1.0000 </r>
       <r>    6.1629    1.0000 </r>
       <r>    6.5396    1.0000 </r>
       <r>    8.0278    0.0000 </r>
       <r>    9.0624    0.0000 </r>
       <r>    9.5086    0.0000 </r>
       <r>    9.7837    0.0000 </r>
       <r>   10.2305    0.0000 </r>
       <r>   10.5448    0.0000 </r>
       <r>   10.8423    0.0000 </r>
       <r>   11.1468    0.0000 </r>
       <r>   11.5131    0.0000 </r>
       <r>   11.9423    0.0000 </r>
       <r>   12.2202    0.0000 </r>
       <r>   12.6600    0.0000 </r>
      </set>
      <set comment="kpoint 131">
       <r>   -6.3833    1.0000 </r>
       <r>   -6.1363    1.0000 </r>
       <r>   -6.0501    1.0000 </r>
       <r>   -5.9686    1.0000 </r>
       <r>    0.4799    1.0000 </r>
       <r>    0.5830    1.0000 </r>
       <r>    0.6294    1.0000 </r>
       <r>    0.7835    1.0000 </r>
       <r>    0.9542    1.0000 </r>
       <r>    1.0600    1.0000 </r>
       <r>    1.1315    1.0000 </r>
       <r>    1.1963    1.0000 </r>
       <r>    1.3301    1.0000 </r>
       <r>    1.4065    1.0000 </r>
       <r>    1.4231    1.0000 </r>
       <r>    1.5163    1.0000 </r>
       <r>    1.6901    1.0000 </r>
       <r>    1.7183    1.0000 </r>
       <r>    1.7449    1.0000 </r>
       <r>    1.8362    1.0000 </r>
       <r>    1.8836    1.0000 </r>
       <r>    1.9437    1.0000 </r>
       <r>    2.0213    1.0000 </r>
       <r>    2.0895    1.0000 </r>
       <r>    2.1207    1.0000 </r>
       <r>    2.2178    1.0000 </r>
       <r>    2.3369    1.0000 </r>
       <r>    2.3840    1.0000 </r>
       <r>    2.4464    1.0000 </r>
       <r>    2.4751    1.0000 </r>
       <r>    2.5204    1.0000 </r>
       <r>    2.6230    1.0000 </r>
       <r>    2.6831    1.0000 </r>
       <r>    2.7349    1.0000 </r>
       <r>    2.7549    1.0000 </r>
       <r>    2.7737    1.0000 </r>
       <r>    2.8217    1.0000 </r>
       <r>    2.8625    1.0000 </r>
       <r>    2.9102    1.0000 </r>
       <r>    2.9736    1.0000 </r>
       <r>    3.0222    1.0000 </r>
       <r>    3.0782    1.0000 </r>
       <r>    3.1373    1.0000 </r>
       <r>    3.2632    1.0000 </r>
       <r>    3.4768    1.0000 </r>
       <r>    3.6025    1.0000 </r>
       <r>    3.8735    1.0000 </r>
       <r>    4.1173    1.0000 </r>
       <r>    4.4313    1.0000 </r>
       <r>    4.6501    1.0000 </r>
       <r>    4.9702    1.0000 </r>
       <r>    5.1427    1.0000 </r>
       <r>    5.7278    1.0000 </r>
       <r>    5.8937    1.0000 </r>
       <r>    6.1428    1.0000 </r>
       <r>    6.4897    1.0000 </r>
       <r>    8.1246    0.0000 </r>
       <r>    9.0522    0.0000 </r>
       <r>    9.5636    0.0000 </r>
       <r>    9.7463    0.0000 </r>
       <r>   10.0483    0.0000 </r>
       <r>   10.4809    0.0000 </r>
       <r>   10.8024    0.0000 </r>
       <r>   11.0894    0.0000 </r>
       <r>   11.5338    0.0000 </r>
       <r>   11.9070    0.0000 </r>
       <r>   12.3516    0.0000 </r>
       <r>   12.6226    0.0000 </r>
      </set>
      <set comment="kpoint 132">
       <r>   -6.3393    1.0000 </r>
       <r>   -6.1264    1.0000 </r>
       <r>   -6.0491    1.0000 </r>
       <r>   -5.9712    1.0000 </r>
       <r>    0.4669    1.0000 </r>
       <r>    0.5390    1.0000 </r>
       <r>    0.6628    1.0000 </r>
       <r>    0.8267    1.0000 </r>
       <r>    0.9728    1.0000 </r>
       <r>    1.0633    1.0000 </r>
       <r>    1.1388    1.0000 </r>
       <r>    1.1915    1.0000 </r>
       <r>    1.3128    1.0000 </r>
       <r>    1.4213    1.0000 </r>
       <r>    1.4628    1.0000 </r>
       <r>    1.4909    1.0000 </r>
       <r>    1.6866    1.0000 </r>
       <r>    1.7419    1.0000 </r>
       <r>    1.7524    1.0000 </r>
       <r>    1.8353    1.0000 </r>
       <r>    1.8867    1.0000 </r>
       <r>    1.9455    1.0000 </r>
       <r>    2.0227    1.0000 </r>
       <r>    2.0890    1.0000 </r>
       <r>    2.1332    1.0000 </r>
       <r>    2.2058    1.0000 </r>
       <r>    2.3340    1.0000 </r>
       <r>    2.3720    1.0000 </r>
       <r>    2.4423    1.0000 </r>
       <r>    2.4655    1.0000 </r>
       <r>    2.5291    1.0000 </r>
       <r>    2.5987    1.0000 </r>
       <r>    2.6906    1.0000 </r>
       <r>    2.7344    1.0000 </r>
       <r>    2.7498    1.0000 </r>
       <r>    2.7635    1.0000 </r>
       <r>    2.8101    1.0000 </r>
       <r>    2.8598    1.0000 </r>
       <r>    2.9054    1.0000 </r>
       <r>    2.9776    1.0000 </r>
       <r>    3.0169    1.0000 </r>
       <r>    3.0639    1.0000 </r>
       <r>    3.1311    1.0000 </r>
       <r>    3.2634    1.0000 </r>
       <r>    3.4721    1.0000 </r>
       <r>    3.5562    1.0000 </r>
       <r>    3.8922    1.0000 </r>
       <r>    4.1174    1.0000 </r>
       <r>    4.3895    1.0000 </r>
       <r>    4.6041    1.0000 </r>
       <r>    4.9758    1.0000 </r>
       <r>    5.1089    1.0000 </r>
       <r>    5.7342    1.0000 </r>
       <r>    5.8977    1.0000 </r>
       <r>    6.1301    1.0000 </r>
       <r>    6.4326    1.0000 </r>
       <r>    8.1801    0.0000 </r>
       <r>    9.0448    0.0000 </r>
       <r>    9.5365    0.0000 </r>
       <r>    9.6650    0.0000 </r>
       <r>    9.9306    0.0000 </r>
       <r>   10.4438    0.0000 </r>
       <r>   10.8214    0.0000 </r>
       <r>   11.0845    0.0000 </r>
       <r>   11.5604    0.0000 </r>
       <r>   11.8831    0.0000 </r>
       <r>   12.3471    0.0000 </r>
       <r>   12.6589    0.0000 </r>
      </set>
      <set comment="kpoint 133">
       <r>   -6.2980    1.0000 </r>
       <r>   -6.1158    1.0000 </r>
       <r>   -6.0473    1.0000 </r>
       <r>   -5.9737    1.0000 </r>
       <r>    0.4463    1.0000 </r>
       <r>    0.5017    1.0000 </r>
       <r>    0.7022    1.0000 </r>
       <r>    0.8707    1.0000 </r>
       <r>    0.9828    1.0000 </r>
       <r>    1.0606    1.0000 </r>
       <r>    1.1467    1.0000 </r>
       <r>    1.1993    1.0000 </r>
       <r>    1.2986    1.0000 </r>
       <r>    1.3969    1.0000 </r>
       <r>    1.4787    1.0000 </r>
       <r>    1.5255    1.0000 </r>
       <r>    1.6848    1.0000 </r>
       <r>    1.7568    1.0000 </r>
       <r>    1.7665    1.0000 </r>
       <r>    1.8378    1.0000 </r>
       <r>    1.8966    1.0000 </r>
       <r>    1.9442    1.0000 </r>
       <r>    2.0233    1.0000 </r>
       <r>    2.0853    1.0000 </r>
       <r>    2.1466    1.0000 </r>
       <r>    2.1975    1.0000 </r>
       <r>    2.3266    1.0000 </r>
       <r>    2.3554    1.0000 </r>
       <r>    2.4309    1.0000 </r>
       <r>    2.4652    1.0000 </r>
       <r>    2.5391    1.0000 </r>
       <r>    2.5728    1.0000 </r>
       <r>    2.6916    1.0000 </r>
       <r>    2.7160    1.0000 </r>
       <r>    2.7539    1.0000 </r>
       <r>    2.7559    1.0000 </r>
       <r>    2.7912    1.0000 </r>
       <r>    2.8673    1.0000 </r>
       <r>    2.9004    1.0000 </r>
       <r>    2.9825    1.0000 </r>
       <r>    3.0174    1.0000 </r>
       <r>    3.0508    1.0000 </r>
       <r>    3.1239    1.0000 </r>
       <r>    3.2516    1.0000 </r>
       <r>    3.4480    1.0000 </r>
       <r>    3.5375    1.0000 </r>
       <r>    3.8970    1.0000 </r>
       <r>    4.1057    1.0000 </r>
       <r>    4.3701    1.0000 </r>
       <r>    4.5433    1.0000 </r>
       <r>    5.0034    1.0000 </r>
       <r>    5.1293    1.0000 </r>
       <r>    5.7129    1.0000 </r>
       <r>    5.8981    1.0000 </r>
       <r>    6.1201    1.0000 </r>
       <r>    6.3725    1.0000 </r>
       <r>    8.1979    0.0000 </r>
       <r>    9.0391    0.0000 </r>
       <r>    9.4353    0.0000 </r>
       <r>    9.5344    0.0000 </r>
       <r>    9.8980    0.0000 </r>
       <r>   10.4452    0.0000 </r>
       <r>   10.8857    0.0000 </r>
       <r>   11.1338    0.0000 </r>
       <r>   11.5894    0.0000 </r>
       <r>   11.8738    0.0000 </r>
       <r>   12.3001    0.0000 </r>
       <r>   12.6556    0.0000 </r>
      </set>
      <set comment="kpoint 134">
       <r>   -6.2611    1.0000 </r>
       <r>   -6.1044    1.0000 </r>
       <r>   -6.0450    1.0000 </r>
       <r>   -5.9760    1.0000 </r>
       <r>    0.4194    1.0000 </r>
       <r>    0.4749    1.0000 </r>
       <r>    0.7426    1.0000 </r>
       <r>    0.9095    1.0000 </r>
       <r>    0.9876    1.0000 </r>
       <r>    1.0544    1.0000 </r>
       <r>    1.1627    1.0000 </r>
       <r>    1.2095    1.0000 </r>
       <r>    1.2887    1.0000 </r>
       <r>    1.3521    1.0000 </r>
       <r>    1.4996    1.0000 </r>
       <r>    1.5719    1.0000 </r>
       <r>    1.6851    1.0000 </r>
       <r>    1.7631    1.0000 </r>
       <r>    1.7808    1.0000 </r>
       <r>    1.8450    1.0000 </r>
       <r>    1.9126    1.0000 </r>
       <r>    1.9469    1.0000 </r>
       <r>    2.0256    1.0000 </r>
       <r>    2.0758    1.0000 </r>
       <r>    2.1571    1.0000 </r>
       <r>    2.1961    1.0000 </r>
       <r>    2.3126    1.0000 </r>
       <r>    2.3399    1.0000 </r>
       <r>    2.4225    1.0000 </r>
       <r>    2.4657    1.0000 </r>
       <r>    2.5351    1.0000 </r>
       <r>    2.5597    1.0000 </r>
       <r>    2.6815    1.0000 </r>
       <r>    2.6944    1.0000 </r>
       <r>    2.7449    1.0000 </r>
       <r>    2.7527    1.0000 </r>
       <r>    2.7817    1.0000 </r>
       <r>    2.8744    1.0000 </r>
       <r>    2.8978    1.0000 </r>
       <r>    2.9848    1.0000 </r>
       <r>    3.0169    1.0000 </r>
       <r>    3.0424    1.0000 </r>
       <r>    3.1201    1.0000 </r>
       <r>    3.2351    1.0000 </r>
       <r>    3.4002    1.0000 </r>
       <r>    3.5407    1.0000 </r>
       <r>    3.8824    1.0000 </r>
       <r>    4.0979    1.0000 </r>
       <r>    4.3540    1.0000 </r>
       <r>    4.4942    1.0000 </r>
       <r>    5.0835    1.0000 </r>
       <r>    5.1647    1.0000 </r>
       <r>    5.6764    1.0000 </r>
       <r>    5.8689    1.0000 </r>
       <r>    6.1106    1.0000 </r>
       <r>    6.3185    1.0000 </r>
       <r>    8.1860    0.0000 </r>
       <r>    9.0324    0.0000 </r>
       <r>    9.2742    0.0000 </r>
       <r>    9.4051    0.0000 </r>
       <r>    9.9236    0.0000 </r>
       <r>   10.4902    0.0000 </r>
       <r>   10.9745    0.0000 </r>
       <r>   11.2074    0.0000 </r>
       <r>   11.6217    0.0000 </r>
       <r>   11.8863    0.0000 </r>
       <r>   12.2627    0.0000 </r>
       <r>   12.5969    0.0000 </r>
      </set>
      <set comment="kpoint 135">
       <r>   -6.2302    1.0000 </r>
       <r>   -6.0921    1.0000 </r>
       <r>   -6.0423    1.0000 </r>
       <r>   -5.9780    1.0000 </r>
       <r>    0.3911    1.0000 </r>
       <r>    0.4562    1.0000 </r>
       <r>    0.7805    1.0000 </r>
       <r>    0.9332    1.0000 </r>
       <r>    0.9981    1.0000 </r>
       <r>    1.0473    1.0000 </r>
       <r>    1.1871    1.0000 </r>
       <r>    1.2086    1.0000 </r>
       <r>    1.2822    1.0000 </r>
       <r>    1.3188    1.0000 </r>
       <r>    1.5169    1.0000 </r>
       <r>    1.6065    1.0000 </r>
       <r>    1.6968    1.0000 </r>
       <r>    1.7657    1.0000 </r>
       <r>    1.7908    1.0000 </r>
       <r>    1.8529    1.0000 </r>
       <r>    1.9279    1.0000 </r>
       <r>    1.9599    1.0000 </r>
       <r>    2.0292    1.0000 </r>
       <r>    2.0693    1.0000 </r>
       <r>    2.1549    1.0000 </r>
       <r>    2.2065    1.0000 </r>
       <r>    2.2960    1.0000 </r>
       <r>    2.3255    1.0000 </r>
       <r>    2.4168    1.0000 </r>
       <r>    2.4674    1.0000 </r>
       <r>    2.5147    1.0000 </r>
       <r>    2.5623    1.0000 </r>
       <r>    2.6575    1.0000 </r>
       <r>    2.6769    1.0000 </r>
       <r>    2.7302    1.0000 </r>
       <r>    2.7438    1.0000 </r>
       <r>    2.7855    1.0000 </r>
       <r>    2.8765    1.0000 </r>
       <r>    2.8995    1.0000 </r>
       <r>    2.9809    1.0000 </r>
       <r>    3.0113    1.0000 </r>
       <r>    3.0391    1.0000 </r>
       <r>    3.1228    1.0000 </r>
       <r>    3.2204    1.0000 </r>
       <r>    3.3555    1.0000 </r>
       <r>    3.5228    1.0000 </r>
       <r>    3.8503    1.0000 </r>
       <r>    4.1212    1.0000 </r>
       <r>    4.2917    1.0000 </r>
       <r>    4.5224    1.0000 </r>
       <r>    5.1771    1.0000 </r>
       <r>    5.2172    1.0000 </r>
       <r>    5.6317    1.0000 </r>
       <r>    5.7975    1.0000 </r>
       <r>    6.1021    1.0000 </r>
       <r>    6.2798    1.0000 </r>
       <r>    8.1567    0.0000 </r>
       <r>    9.0059    0.0000 </r>
       <r>    9.0953    0.0000 </r>
       <r>    9.3015    0.0000 </r>
       <r>    9.9861    0.0000 </r>
       <r>   10.5736    0.0000 </r>
       <r>   11.0703    0.0000 </r>
       <r>   11.2807    0.0000 </r>
       <r>   11.6455    0.0000 </r>
       <r>   11.9296    0.0000 </r>
       <r>   12.2508    0.0000 </r>
       <r>   12.5015    0.0000 </r>
      </set>
      <set comment="kpoint 136">
       <r>   -6.2061    1.0000 </r>
       <r>   -6.0793    1.0000 </r>
       <r>   -6.0392    1.0000 </r>
       <r>   -5.9796    1.0000 </r>
       <r>    0.3658    1.0000 </r>
       <r>    0.4428    1.0000 </r>
       <r>    0.8136    1.0000 </r>
       <r>    0.9409    1.0000 </r>
       <r>    1.0094    1.0000 </r>
       <r>    1.0491    1.0000 </r>
       <r>    1.1810    1.0000 </r>
       <r>    1.2190    1.0000 </r>
       <r>    1.2798    1.0000 </r>
       <r>    1.3109    1.0000 </r>
       <r>    1.5274    1.0000 </r>
       <r>    1.6217    1.0000 </r>
       <r>    1.7258    1.0000 </r>
       <r>    1.7653    1.0000 </r>
       <r>    1.8005    1.0000 </r>
       <r>    1.8575    1.0000 </r>
       <r>    1.9406    1.0000 </r>
       <r>    1.9768    1.0000 </r>
       <r>    2.0303    1.0000 </r>
       <r>    2.0743    1.0000 </r>
       <r>    2.1464    1.0000 </r>
       <r>    2.2203    1.0000 </r>
       <r>    2.2846    1.0000 </r>
       <r>    2.3104    1.0000 </r>
       <r>    2.4130    1.0000 </r>
       <r>    2.4652    1.0000 </r>
       <r>    2.5016    1.0000 </r>
       <r>    2.5639    1.0000 </r>
       <r>    2.6322    1.0000 </r>
       <r>    2.6595    1.0000 </r>
       <r>    2.7139    1.0000 </r>
       <r>    2.7314    1.0000 </r>
       <r>    2.7937    1.0000 </r>
       <r>    2.8746    1.0000 </r>
       <r>    2.9035    1.0000 </r>
       <r>    2.9701    1.0000 </r>
       <r>    3.0047    1.0000 </r>
       <r>    3.0382    1.0000 </r>
       <r>    3.1273    1.0000 </r>
       <r>    3.2094    1.0000 </r>
       <r>    3.3245    1.0000 </r>
       <r>    3.4685    1.0000 </r>
       <r>    3.8228    1.0000 </r>
       <r>    4.1188    1.0000 </r>
       <r>    4.2784    1.0000 </r>
       <r>    4.5957    1.0000 </r>
       <r>    5.1989    1.0000 </r>
       <r>    5.3362    1.0000 </r>
       <r>    5.5770    1.0000 </r>
       <r>    5.6988    1.0000 </r>
       <r>    6.0945    1.0000 </r>
       <r>    6.2570    1.0000 </r>
       <r>    8.1237    0.0000 </r>
       <r>    8.8503    0.0000 </r>
       <r>    9.0303    0.0000 </r>
       <r>    9.2249    0.0000 </r>
       <r>   10.0748    0.0000 </r>
       <r>   10.6755    0.0000 </r>
       <r>   11.1642    0.0000 </r>
       <r>   11.3532    0.0000 </r>
       <r>   11.6498    0.0000 </r>
       <r>   11.9844    0.0000 </r>
       <r>   12.2699    0.0000 </r>
       <r>   12.3966    0.0000 </r>
      </set>
      <set comment="kpoint 137">
       <r>   -6.1888    1.0000 </r>
       <r>   -6.0673    1.0000 </r>
       <r>   -6.0358    1.0000 </r>
       <r>   -5.9809    1.0000 </r>
       <r>    0.3456    1.0000 </r>
       <r>    0.4332    1.0000 </r>
       <r>    0.8412    1.0000 </r>
       <r>    0.9449    1.0000 </r>
       <r>    1.0038    1.0000 </r>
       <r>    1.0609    1.0000 </r>
       <r>    1.1551    1.0000 </r>
       <r>    1.2396    1.0000 </r>
       <r>    1.2826    1.0000 </r>
       <r>    1.3182    1.0000 </r>
       <r>    1.5329    1.0000 </r>
       <r>    1.6275    1.0000 </r>
       <r>    1.7540    1.0000 </r>
       <r>    1.7640    1.0000 </r>
       <r>    1.8154    1.0000 </r>
       <r>    1.8604    1.0000 </r>
       <r>    1.9522    1.0000 </r>
       <r>    1.9855    1.0000 </r>
       <r>    2.0358    1.0000 </r>
       <r>    2.0773    1.0000 </r>
       <r>    2.1469    1.0000 </r>
       <r>    2.2267    1.0000 </r>
       <r>    2.2794    1.0000 </r>
       <r>    2.3027    1.0000 </r>
       <r>    2.4081    1.0000 </r>
       <r>    2.4503    1.0000 </r>
       <r>    2.5071    1.0000 </r>
       <r>    2.5647    1.0000 </r>
       <r>    2.6132    1.0000 </r>
       <r>    2.6434    1.0000 </r>
       <r>    2.6965    1.0000 </r>
       <r>    2.7144    1.0000 </r>
       <r>    2.8055    1.0000 </r>
       <r>    2.8705    1.0000 </r>
       <r>    2.9080    1.0000 </r>
       <r>    2.9583    1.0000 </r>
       <r>    2.9992    1.0000 </r>
       <r>    3.0370    1.0000 </r>
       <r>    3.1275    1.0000 </r>
       <r>    3.2021    1.0000 </r>
       <r>    3.3091    1.0000 </r>
       <r>    3.3892    1.0000 </r>
       <r>    3.8104    1.0000 </r>
       <r>    4.0481    1.0000 </r>
       <r>    4.3714    1.0000 </r>
       <r>    4.6864    1.0000 </r>
       <r>    5.1931    1.0000 </r>
       <r>    5.4150    1.0000 </r>
       <r>    5.5110    1.0000 </r>
       <r>    5.6321    1.0000 </r>
       <r>    6.0865    1.0000 </r>
       <r>    6.2456    1.0000 </r>
       <r>    8.0996    0.0000 </r>
       <r>    8.6561    0.0000 </r>
       <r>    9.0080    0.0000 </r>
       <r>    9.1721    0.0000 </r>
       <r>   10.1809    0.0000 </r>
       <r>   10.7631    0.0000 </r>
       <r>   11.2548    0.0000 </r>
       <r>   11.4320    0.0000 </r>
       <r>   11.6509    0.0000 </r>
       <r>   11.9871    0.0000 </r>
       <r>   12.2837    0.0000 </r>
       <r>   12.3643    0.0000 </r>
      </set>
      <set comment="kpoint 138">
       <r>   -6.1775    1.0000 </r>
       <r>   -6.0581    1.0000 </r>
       <r>   -6.0322    1.0000 </r>
       <r>   -5.9817    1.0000 </r>
       <r>    0.3310    1.0000 </r>
       <r>    0.4269    1.0000 </r>
       <r>    0.8652    1.0000 </r>
       <r>    0.9479    1.0000 </r>
       <r>    0.9915    1.0000 </r>
       <r>    1.0558    1.0000 </r>
       <r>    1.1522    1.0000 </r>
       <r>    1.2499    1.0000 </r>
       <r>    1.2866    1.0000 </r>
       <r>    1.3291    1.0000 </r>
       <r>    1.5374    1.0000 </r>
       <r>    1.6308    1.0000 </r>
       <r>    1.7564    1.0000 </r>
       <r>    1.7719    1.0000 </r>
       <r>    1.8392    1.0000 </r>
       <r>    1.8653    1.0000 </r>
       <r>    1.9508    1.0000 </r>
       <r>    1.9999    1.0000 </r>
       <r>    2.0403    1.0000 </r>
       <r>    2.0701    1.0000 </r>
       <r>    2.1568    1.0000 </r>
       <r>    2.2297    1.0000 </r>
       <r>    2.2712    1.0000 </r>
       <r>    2.3138    1.0000 </r>
       <r>    2.3957    1.0000 </r>
       <r>    2.4340    1.0000 </r>
       <r>    2.5211    1.0000 </r>
       <r>    2.5683    1.0000 </r>
       <r>    2.6012    1.0000 </r>
       <r>    2.6314    1.0000 </r>
       <r>    2.6782    1.0000 </r>
       <r>    2.6937    1.0000 </r>
       <r>    2.8224    1.0000 </r>
       <r>    2.8654    1.0000 </r>
       <r>    2.9121    1.0000 </r>
       <r>    2.9504    1.0000 </r>
       <r>    2.9942    1.0000 </r>
       <r>    3.0347    1.0000 </r>
       <r>    3.1246    1.0000 </r>
       <r>    3.1974    1.0000 </r>
       <r>    3.2948    1.0000 </r>
       <r>    3.3165    1.0000 </r>
       <r>    3.8111    1.0000 </r>
       <r>    3.9754    1.0000 </r>
       <r>    4.4988    1.0000 </r>
       <r>    4.7830    1.0000 </r>
       <r>    5.1628    1.0000 </r>
       <r>    5.3154    1.0000 </r>
       <r>    5.5064    1.0000 </r>
       <r>    5.6622    1.0000 </r>
       <r>    6.0774    1.0000 </r>
       <r>    6.2415    1.0000 </r>
       <r>    8.0939    0.0000 </r>
       <r>    8.4819    0.0000 </r>
       <r>    8.9905    0.0000 </r>
       <r>    9.1373    0.0000 </r>
       <r>   10.2906    0.0000 </r>
       <r>   10.8137    0.0000 </r>
       <r>   11.3285    0.0000 </r>
       <r>   11.4899    0.0000 </r>
       <r>   11.7039    0.0000 </r>
       <r>   11.9084    0.0000 </r>
       <r>   12.2896    0.0000 </r>
       <r>   12.4160    0.0000 </r>
      </set>
      <set comment="kpoint 139">
       <r>   -6.1713    1.0000 </r>
       <r>   -6.0527    1.0000 </r>
       <r>   -6.0290    1.0000 </r>
       <r>   -5.9823    1.0000 </r>
       <r>    0.3222    1.0000 </r>
       <r>    0.4233    1.0000 </r>
       <r>    0.8887    1.0000 </r>
       <r>    0.9389    1.0000 </r>
       <r>    0.9864    1.0000 </r>
       <r>    1.0399    1.0000 </r>
       <r>    1.1649    1.0000 </r>
       <r>    1.2523    1.0000 </r>
       <r>    1.2893    1.0000 </r>
       <r>    1.3366    1.0000 </r>
       <r>    1.5425    1.0000 </r>
       <r>    1.6324    1.0000 </r>
       <r>    1.7510    1.0000 </r>
       <r>    1.7774    1.0000 </r>
       <r>    1.8609    1.0000 </r>
       <r>    1.8720    1.0000 </r>
       <r>    1.9427    1.0000 </r>
       <r>    2.0159    1.0000 </r>
       <r>    2.0401    1.0000 </r>
       <r>    2.0613    1.0000 </r>
       <r>    2.1623    1.0000 </r>
       <r>    2.2334    1.0000 </r>
       <r>    2.2754    1.0000 </r>
       <r>    2.3257    1.0000 </r>
       <r>    2.3739    1.0000 </r>
       <r>    2.4268    1.0000 </r>
       <r>    2.5321    1.0000 </r>
       <r>    2.5759    1.0000 </r>
       <r>    2.5943    1.0000 </r>
       <r>    2.6264    1.0000 </r>
       <r>    2.6621    1.0000 </r>
       <r>    2.6739    1.0000 </r>
       <r>    2.8408    1.0000 </r>
       <r>    2.8620    1.0000 </r>
       <r>    2.9157    1.0000 </r>
       <r>    2.9451    1.0000 </r>
       <r>    2.9907    1.0000 </r>
       <r>    3.0325    1.0000 </r>
       <r>    3.1230    1.0000 </r>
       <r>    3.1949    1.0000 </r>
       <r>    3.2347    1.0000 </r>
       <r>    3.3109    1.0000 </r>
       <r>    3.8214    1.0000 </r>
       <r>    3.9197    1.0000 </r>
       <r>    4.6240    1.0000 </r>
       <r>    4.8737    1.0000 </r>
       <r>    5.1106    1.0000 </r>
       <r>    5.1849    1.0000 </r>
       <r>    5.4949    1.0000 </r>
       <r>    5.7244    1.0000 </r>
       <r>    6.0687    1.0000 </r>
       <r>    6.2413    1.0000 </r>
       <r>    8.1103    0.0000 </r>
       <r>    8.3470    0.0000 </r>
       <r>    8.9795    0.0000 </r>
       <r>    9.1166    0.0000 </r>
       <r>   10.3803    0.0000 </r>
       <r>   10.8315    0.0000 </r>
       <r>   11.3732    0.0000 </r>
       <r>   11.4961    0.0000 </r>
       <r>   11.7942    0.0000 </r>
       <r>   11.8477    0.0000 </r>
       <r>   12.3113    0.0000 </r>
       <r>   12.4497    0.0000 </r>
      </set>
      <set comment="kpoint 140">
       <r>   -6.1693    1.0000 </r>
       <r>   -6.0511    1.0000 </r>
       <r>   -6.0277    1.0000 </r>
       <r>   -5.9824    1.0000 </r>
       <r>    0.3193    1.0000 </r>
       <r>    0.4221    1.0000 </r>
       <r>    0.9082    1.0000 </r>
       <r>    0.9217    1.0000 </r>
       <r>    0.9882    1.0000 </r>
       <r>    1.0320    1.0000 </r>
       <r>    1.1717    1.0000 </r>
       <r>    1.2520    1.0000 </r>
       <r>    1.2903    1.0000 </r>
       <r>    1.3390    1.0000 </r>
       <r>    1.5451    1.0000 </r>
       <r>    1.6328    1.0000 </r>
       <r>    1.7484    1.0000 </r>
       <r>    1.7791    1.0000 </r>
       <r>    1.8684    1.0000 </r>
       <r>    1.8764    1.0000 </r>
       <r>    1.9388    1.0000 </r>
       <r>    2.0217    1.0000 </r>
       <r>    2.0398    1.0000 </r>
       <r>    2.0576    1.0000 </r>
       <r>    2.1630    1.0000 </r>
       <r>    2.2344    1.0000 </r>
       <r>    2.2847    1.0000 </r>
       <r>    2.3280    1.0000 </r>
       <r>    2.3619    1.0000 </r>
       <r>    2.4252    1.0000 </r>
       <r>    2.5359    1.0000 </r>
       <r>    2.5798    1.0000 </r>
       <r>    2.5924    1.0000 </r>
       <r>    2.6266    1.0000 </r>
       <r>    2.6548    1.0000 </r>
       <r>    2.6646    1.0000 </r>
       <r>    2.8484    1.0000 </r>
       <r>    2.8624    1.0000 </r>
       <r>    2.9176    1.0000 </r>
       <r>    2.9422    1.0000 </r>
       <r>    2.9896    1.0000 </r>
       <r>    3.0316    1.0000 </r>
       <r>    3.1234    1.0000 </r>
       <r>    3.1943    1.0000 </r>
       <r>    3.2076    1.0000 </r>
       <r>    3.3115    1.0000 </r>
       <r>    3.8308    1.0000 </r>
       <r>    3.8949    1.0000 </r>
       <r>    4.6867    1.0000 </r>
       <r>    4.9237    1.0000 </r>
       <r>    5.0666    1.0000 </r>
       <r>    5.1262    1.0000 </r>
       <r>    5.4896    1.0000 </r>
       <r>    5.7502    1.0000 </r>
       <r>    6.0648    1.0000 </r>
       <r>    6.2418    1.0000 </r>
       <r>    8.1289    0.0000 </r>
       <r>    8.2869    0.0000 </r>
       <r>    8.9759    0.0000 </r>
       <r>    9.1096    0.0000 </r>
       <r>   10.4166    0.0000 </r>
       <r>   10.8339    0.0000 </r>
       <r>   11.3878    0.0000 </r>
       <r>   11.4930    0.0000 </r>
       <r>   11.7701    0.0000 </r>
       <r>   11.8996    0.0000 </r>
       <r>   12.3230    0.0000 </r>
       <r>   12.4541    0.0000 </r>
      </set>
     </set>
    </set>
   </array>
  </eigenvalues>
  <separator name="orbital magnetization" >
   <v name="MAGDIPOLOUT">      0.00000000      0.00000000      0.00000000</v>
  </separator>
  <dos>
   <i name="efermi">      6.74613847 </i>
   <total>
    <array>
     <dimension dim="1">gridpoints</dimension>
     <dimension dim="2">spin</dimension>
     <field>energy</field>
     <field>total</field>
     <field>integrated</field>
     <set>
      <set comment="spin 1">
       <r>    -7.7121     0.0000     0.0000 </r>
       <r>    -7.6361     0.0000     0.0000 </r>
       <r>    -7.5602     0.0000     0.0000 </r>
       <r>    -7.4842     0.0000     0.0000 </r>
       <r>    -7.4082     0.0000     0.0000 </r>
       <r>    -7.3322     0.0000     0.0000 </r>
       <r>    -7.2562     0.0000     0.0000 </r>
       <r>    -7.1802     0.0000     0.0000 </r>
       <r>    -7.1042     0.0000     0.0000 </r>
       <r>    -7.0282     0.0000     0.0000 </r>
       <r>    -6.9523     0.0000     0.0000 </r>
       <r>    -6.8763     0.0000     0.0000 </r>
       <r>    -6.8003    -0.0000    -0.0000 </r>
       <r>    -6.7243    -0.0000    -0.0000 </r>
       <r>    -6.6483     5.9831     0.4546 </r>
       <r>    -6.5723     5.2196     0.8512 </r>
       <r>    -6.4963     3.9113     1.1474 </r>
       <r>    -6.4203     3.3454     1.4015 </r>
       <r>    -6.3444     3.2252     1.6465 </r>
       <r>    -6.2684     3.2920     1.8967 </r>
       <r>    -6.1924    10.3371     2.6854 </r>
       <r>    -6.1164    14.2161     3.7676 </r>
       <r>    -6.0404    16.5604     5.0253 </r>
       <r>    -5.9644    22.8901     6.7713 </r>
       <r>    -5.8884    16.1630     8.0000 </r>
       <r>    -5.8124     0.0000     8.0000 </r>
       <r>    -5.7365     0.0000     8.0000 </r>
       <r>    -5.6605     0.0000     8.0000 </r>
       <r>    -5.5845     0.0000     8.0000 </r>
       <r>    -5.5085     0.0000     8.0000 </r>
       <r>    -5.4325     0.0000     8.0000 </r>
       <r>    -5.3565     0.0000     8.0000 </r>
       <r>    -5.2805     0.0000     8.0000 </r>
       <r>    -5.2045     0.0000     8.0000 </r>
       <r>    -5.1286     0.0000     8.0000 </r>
       <r>    -5.0526     0.0000     8.0000 </r>
       <r>    -4.9766     0.0000     8.0000 </r>
       <r>    -4.9006     0.0000     8.0000 </r>
       <r>    -4.8246     0.0000     8.0000 </r>
       <r>    -4.7486     0.0000     8.0000 </r>
       <r>    -4.6726     0.0000     8.0000 </r>
       <r>    -4.5966     0.0000     8.0000 </r>
       <r>    -4.5207     0.0000     8.0000 </r>
       <r>    -4.4447     0.0000     8.0000 </r>
       <r>    -4.3687     0.0000     8.0000 </r>
       <r>    -4.2927     0.0000     8.0000 </r>
       <r>    -4.2167     0.0000     8.0000 </r>
       <r>    -4.1407     0.0000     8.0000 </r>
       <r>    -4.0647     0.0000     8.0000 </r>
       <r>    -3.9887     0.0000     8.0000 </r>
       <r>    -3.9128     0.0000     8.0000 </r>
       <r>    -3.8368     0.0000     8.0000 </r>
       <r>    -3.7608     0.0000     8.0000 </r>
       <r>    -3.6848     0.0000     8.0000 </r>
       <r>    -3.6088     0.0000     8.0000 </r>
       <r>    -3.5328     0.0000     8.0000 </r>
       <r>    -3.4568     0.0000     8.0000 </r>
       <r>    -3.3808     0.0000     8.0000 </r>
       <r>    -3.3049     0.0000     8.0000 </r>
       <r>    -3.2289     0.0000     8.0000 </r>
       <r>    -3.1529     0.0000     8.0000 </r>
       <r>    -3.0769     0.0000     8.0000 </r>
       <r>    -3.0009     0.0000     8.0000 </r>
       <r>    -2.9249     0.0000     8.0000 </r>
       <r>    -2.8489     0.0000     8.0000 </r>
       <r>    -2.7729     0.0000     8.0000 </r>
       <r>    -2.6970     0.0000     8.0000 </r>
       <r>    -2.6210     0.0000     8.0000 </r>
       <r>    -2.5450     0.0000     8.0000 </r>
       <r>    -2.4690     0.0000     8.0000 </r>
       <r>    -2.3930     0.0000     8.0000 </r>
       <r>    -2.3170     0.0000     8.0000 </r>
       <r>    -2.2410     0.0000     8.0000 </r>
       <r>    -2.1650     0.0000     8.0000 </r>
       <r>    -2.0891     0.0000     8.0000 </r>
       <r>    -2.0131     0.0000     8.0000 </r>
       <r>    -1.9371     0.0000     8.0000 </r>
       <r>    -1.8611     0.0000     8.0000 </r>
       <r>    -1.7851     0.0000     8.0000 </r>
       <r>    -1.7091     0.0000     8.0000 </r>
       <r>    -1.6331     0.0000     8.0000 </r>
       <r>    -1.5571     0.0000     8.0000 </r>
       <r>    -1.4812     0.0000     8.0000 </r>
       <r>    -1.4052     0.0000     8.0000 </r>
       <r>    -1.3292     0.0000     8.0000 </r>
       <r>    -1.2532     0.0000     8.0000 </r>
       <r>    -1.1772     0.0000     8.0000 </r>
       <r>    -1.1012     0.0000     8.0000 </r>
       <r>    -1.0252     0.0000     8.0000 </r>
       <r>    -0.9492     0.0000     8.0000 </r>
       <r>    -0.8733     0.0000     8.0000 </r>
       <r>    -0.7973     0.0000     8.0000 </r>
       <r>    -0.7213     0.0000     8.0000 </r>
       <r>    -0.6453     0.0000     8.0000 </r>
       <r>    -0.5693     0.0000     8.0000 </r>
       <r>    -0.4933     0.0000     8.0000 </r>
       <r>    -0.4173     0.0000     8.0000 </r>
       <r>    -0.3414     0.0000     8.0000 </r>
       <r>    -0.2654     0.0000     8.0000 </r>
       <r>    -0.1894     0.0000     8.0000 </r>
       <r>    -0.1134     0.0000     8.0000 </r>
       <r>    -0.0374     0.0000     8.0000 </r>
       <r>     0.0386     0.0000     8.0000 </r>
       <r>     0.1146     0.0000     8.0000 </r>
       <r>     0.1906    -0.0000     8.0000 </r>
       <r>     0.2665    -0.0000     8.0000 </r>
       <r>     0.3425     0.6200     8.0471 </r>
       <r>     0.4185     1.4899     8.1597 </r>
       <r>     0.4945    25.9566    10.1318 </r>
       <r>     0.5705    17.8995    11.4787 </r>
       <r>     0.6465    20.0235    12.9931 </r>
       <r>     0.7225    12.8991    13.9799 </r>
       <r>     0.7985    21.8981    15.6426 </r>
       <r>     0.8744    17.4051    16.9695 </r>
       <r>     0.9504    15.2872    18.1335 </r>
       <r>     1.0264    14.8893    19.2630 </r>
       <r>     1.1024    26.5452    21.2789 </r>
       <r>     1.1784    19.5177    22.7547 </r>
       <r>     1.2544    22.6355    24.4745 </r>
       <r>     1.3304    23.2807    26.2532 </r>
       <r>     1.4064    17.2983    27.5654 </r>
       <r>     1.4823    17.3597    28.8851 </r>
       <r>     1.5583    31.2794    31.2674 </r>
       <r>     1.6343    25.3022    33.1836 </r>
       <r>     1.7103    28.5823    35.3504 </r>
       <r>     1.7863    26.4628    37.3662 </r>
       <r>     1.8623    25.2418    39.2859 </r>
       <r>     1.9383    22.3138    40.9782 </r>
       <r>     2.0143    32.7246    43.4743 </r>
       <r>     2.0902    38.0016    46.3576 </r>
       <r>     2.1662    32.0755    48.7938 </r>
       <r>     2.2422    25.8450    50.7571 </r>
       <r>     2.3182    33.6802    53.3215 </r>
       <r>     2.3942    26.8545    55.3788 </r>
       <r>     2.4702    44.2264    58.7405 </r>
       <r>     2.5462    39.1576    61.7366 </r>
       <r>     2.6222    40.7866    64.8394 </r>
       <r>     2.6981    32.6086    67.3186 </r>
       <r>     2.7741    32.3941    69.7963 </r>
       <r>     2.8501    39.4872    72.8020 </r>
       <r>     2.9261    39.4125    75.8018 </r>
       <r>     3.0021    41.0212    78.9186 </r>
       <r>     3.0781    34.7966    81.5590 </r>
       <r>     3.1541    34.8467    84.2074 </r>
       <r>     3.2301    20.9791    85.7935 </r>
       <r>     3.3060    20.5962    87.3622 </r>
       <r>     3.3820    18.5930    88.7759 </r>
       <r>     3.4580    13.0701    89.7808 </r>
       <r>     3.5340    13.9552    90.8402 </r>
       <r>     3.6100    12.0411    91.7555 </r>
       <r>     3.6860     8.8678    92.4340 </r>
       <r>     3.7620     7.8260    93.0272 </r>
       <r>     3.8380     7.4136    93.5909 </r>
       <r>     3.9139     6.8481    94.1106 </r>
       <r>     3.9899     6.7151    94.6197 </r>
       <r>     4.0659     3.8099    94.9075 </r>
       <r>     4.1419     6.2607    95.3815 </r>
       <r>     4.2179     3.5418    95.6497 </r>
       <r>     4.2939     4.0678    95.9603 </r>
       <r>     4.3699     5.7021    96.3948 </r>
       <r>     4.4459     4.3701    96.7248 </r>
       <r>     4.5218     3.6094    96.9975 </r>
       <r>     4.5978     5.7814    97.4361 </r>
       <r>     4.6738     6.1909    97.9053 </r>
       <r>     4.7498     9.7157    98.6453 </r>
       <r>     4.8258     4.0112    98.9489 </r>
       <r>     4.9018     5.4764    99.3646 </r>
       <r>     4.9778     5.6576    99.7938 </r>
       <r>     5.0538     4.3152   100.1238 </r>
       <r>     5.1297     6.6599   100.6296 </r>
       <r>     5.2057     6.6273   101.1324 </r>
       <r>     5.2817    11.2646   101.9860 </r>
       <r>     5.3577     6.0402   102.4411 </r>
       <r>     5.4337     5.0840   102.8282 </r>
       <r>     5.5097     5.1571   103.2221 </r>
       <r>     5.5857     4.3911   103.5538 </r>
       <r>     5.6617     6.0543   104.0158 </r>
       <r>     5.7376    10.8772   104.8409 </r>
       <r>     5.8136     9.0850   105.5294 </r>
       <r>     5.8896     5.3366   105.9338 </r>
       <r>     5.9656     5.8379   106.3781 </r>
       <r>     6.0416     5.8380   106.8231 </r>
       <r>     6.1176     6.1003   107.2907 </r>
       <r>     6.1936     8.0614   107.9018 </r>
       <r>     6.2696     7.2756   108.4501 </r>
       <r>     6.3455     6.6075   108.9521 </r>
       <r>     6.4215     9.7750   109.6994 </r>
       <r>     6.4975     4.7379   110.0571 </r>
       <r>     6.5735     7.5609   110.6331 </r>
       <r>     6.6495     8.5293   111.2859 </r>
       <r>     6.7255     6.0624   111.7479 </r>
       <r>     6.8015     6.5045   112.2453 </r>
       <r>     6.8775     1.1682   112.3334 </r>
       <r>     6.9534     0.9056   112.4022 </r>
       <r>     7.0294     1.1005   112.4862 </r>
       <r>     7.1054     0.5952   112.5304 </r>
       <r>     7.1814     1.3689   112.6344 </r>
       <r>     7.2574     0.4525   112.6716 </r>
       <r>     7.3334     0.5362   112.7121 </r>
       <r>     7.4094     1.2469   112.8065 </r>
       <r>     7.4854     0.3966   112.8361 </r>
       <r>     7.5613     1.3147   112.9360 </r>
       <r>     7.6373     0.6486   112.9850 </r>
       <r>     7.7133     0.8008   113.0465 </r>
       <r>     7.7893     1.4081   113.1530 </r>
       <r>     7.8653     0.4316   113.1854 </r>
       <r>     7.9413     1.1950   113.2758 </r>
       <r>     8.0173     4.1041   113.5876 </r>
       <r>     8.0933     4.7480   113.9472 </r>
       <r>     8.1692     4.5662   114.2938 </r>
       <r>     8.2452     3.0908   114.5285 </r>
       <r>     8.3212     2.7312   114.7368 </r>
       <r>     8.3972     2.1701   114.9041 </r>
       <r>     8.4732     2.4065   115.0894 </r>
       <r>     8.5492     2.4302   115.2728 </r>
       <r>     8.6252     1.4584   115.3833 </r>
       <r>     8.7012     2.2324   115.5541 </r>
       <r>     8.7771     2.6749   115.7570 </r>
       <r>     8.8531     2.8611   115.9739 </r>
       <r>     8.9291     1.2713   116.0708 </r>
       <r>     9.0051     3.1773   116.3120 </r>
       <r>     9.0811     3.8564   116.6058 </r>
       <r>     9.1571     3.2662   116.8542 </r>
       <r>     9.2331     5.0647   117.2401 </r>
       <r>     9.3091     5.3630   117.6478 </r>
       <r>     9.3850     3.5487   117.9169 </r>
       <r>     9.4610     3.0337   118.1502 </r>
       <r>     9.5370     5.6297   118.5763 </r>
       <r>     9.6130     3.1575   118.8172 </r>
       <r>     9.6890     3.7963   119.1062 </r>
       <r>     9.7650     3.3759   119.3618 </r>
       <r>     9.8410     4.0590   119.6689 </r>
       <r>     9.9170     2.4767   119.8564 </r>
       <r>     9.9929     1.4083   119.9644 </r>
       <r>    10.0689     5.5154   120.3848 </r>
       <r>    10.1449     4.9560   120.7586 </r>
       <r>    10.2209     3.8268   121.0523 </r>
       <r>    10.2969     3.2672   121.3001 </r>
       <r>    10.3729     2.0780   121.4579 </r>
       <r>    10.4489     2.3799   121.6378 </r>
       <r>    10.5249     1.9005   121.7834 </r>
       <r>    10.6008     2.4438   121.9710 </r>
       <r>    10.6768     1.2609   122.0670 </r>
       <r>    10.7528     2.8744   122.2854 </r>
       <r>    10.8288     3.2898   122.5370 </r>
       <r>    10.9048     3.3370   122.7913 </r>
       <r>    10.9808     4.6107   123.1428 </r>
       <r>    11.0568     3.9282   123.4420 </r>
       <r>    11.1327     5.8745   123.8880 </r>
       <r>    11.2087     8.7961   124.5540 </r>
       <r>    11.2847     9.0312   125.2426 </r>
       <r>    11.3607     7.7404   125.8342 </r>
       <r>    11.4367     6.5052   126.3260 </r>
       <r>    11.5127     9.3771   127.0430 </r>
       <r>    11.5887     4.7346   127.3971 </r>
       <r>    11.6647     3.6185   127.6713 </r>
       <r>    11.7406     6.8462   128.1900 </r>
       <r>    11.8166     9.3639   128.8991 </r>
       <r>    11.8926     5.1932   129.2969 </r>
       <r>    11.9686     6.6204   129.7992 </r>
       <r>    12.0446     6.6112   130.3053 </r>
       <r>    12.1206     8.3985   130.9435 </r>
       <r>    12.1966     7.3519   131.5012 </r>
       <r>    12.2726     4.2328   131.8209 </r>
       <r>    12.3485     5.4991   132.2393 </r>
       <r>    12.4245     6.4607   132.7289 </r>
       <r>    12.5005     4.7388   133.0876 </r>
       <r>    12.5765     2.1318   133.2509 </r>
       <r>    12.6525     4.9206   133.6245 </r>
       <r>    12.7285     1.9369   133.7706 </r>
       <r>    12.8045     3.2995   134.0213 </r>
       <r>    12.8805     1.4359   134.1285 </r>
       <r>    12.9564     3.6708   134.4095 </r>
       <r>    13.0324     2.2174   134.5775 </r>
       <r>    13.1084     1.7851   134.7139 </r>
       <r>    13.1844     2.5050   134.9042 </r>
       <r>    13.2604     5.8493   135.3506 </r>
       <r>    13.3364     5.1139   135.7386 </r>
       <r>    13.4124     1.7071   135.8726 </r>
       <r>    13.4884     0.5632   135.9145 </r>
       <r>    13.5643    -0.0000   135.9143 </r>
       <r>    13.6403    -0.0000   135.9143 </r>
       <r>    13.7163     0.1927   135.9289 </r>
       <r>    13.7923    -0.0000   135.9286 </r>
       <r>    13.8683    -0.0000   135.9286 </r>
       <r>    13.9443     0.1276   135.9383 </r>
       <r>    14.0203     0.5914   135.9832 </r>
       <r>    14.0963     0.1881   136.0000 </r>
       <r>    14.1722     0.0000   136.0000 </r>
       <r>    14.2482     0.0000   136.0000 </r>
       <r>    14.3242     0.0000   136.0000 </r>
       <r>    14.4002     0.0000   136.0000 </r>
       <r>    14.4762     0.0000   136.0000 </r>
       <r>    14.5522     0.0000   136.0000 </r>
       <r>    14.6282     0.0000   136.0000 </r>
       <r>    14.7042     0.0000   136.0000 </r>
       <r>    14.7801     0.0000   136.0000 </r>
       <r>    14.8561     0.0000   136.0000 </r>
       <r>    14.9321     0.0000   136.0000 </r>
       <r>    15.0081     0.0000   136.0000 </r>
       <r>    15.0841     0.0000   136.0000 </r>
      </set>
     </set>
    </array>
   </total>
  </dos>
 </calculation>
 <structure name="finalpos" >
  <crystal>
   <varray name="basis" >
    <v>       4.17396650       0.04000356       0.03105857 </v>
    <v>       0.07725169       6.75470232      -0.04567415 </v>
    <v>      -2.66144762      -0.07158814       7.73742456 </v>
   </varray>
   <i name="volume">    218.67366414 </i>
   <varray name="rec_basis" >
    <v>       0.23898959      -0.00217754       0.08218528 </v>
    <v>      -0.00142563       0.14806727       0.00087957 </v>
    <v>      -0.00096774       0.00088278       0.12891727 </v>
   </varray>
  </crystal>
  <varray name="positions" >
   <v>       0.60290165       0.46910495       0.83919379 </v>
   <v>       0.34983914       0.53472779       0.13982921 </v>
   <v>       0.23325935       0.36147660       0.45850362 </v>
   <v>       0.42407940       0.98074604       0.66469326 </v>
   <v>       0.58606029       0.01369747       0.34296598 </v>
   <v>       0.78817888       0.64850067       0.55344556 </v>
   <v>       0.19658763       0.14411060       0.94376314 </v>
   <v>       0.79999140       0.84498749       0.05264226 </v>
   <v>       0.81577023       0.25032526       0.15021207 </v>
   <v>       0.17701423       0.74839369       0.36489485 </v>
   <v>       0.19497113       0.75420135       0.85139013 </v>
   <v>       0.83134669       0.24972808       0.63846614 </v>
  </varray>
 </structure>
</modeling>
