Ag2SeS                                  
           1
     4.173966    0.040004    0.031059
     0.077252    6.754702   -0.045674
    -2.661448   -0.071588    7.737425
   Ag   Se   S 
   8   1   3
Direct configuration=     1
   0.60290165  0.46910495  0.83919379
   0.34983914  0.53472779  0.13982921
   0.23325935  0.36147660  0.45850362
   0.42407940  0.98074604  0.66469326
   0.58606029  0.01369747  0.34296598
   0.78817888  0.64850067  0.55344556
   0.19658763  0.14411060  0.94376314
   0.79999140  0.84498749  0.05264226
   0.81577023  0.25032526  0.15021207
   0.17701423  0.74839369  0.36489485
   0.19497113  0.75420135  0.85139013
   0.83134669  0.24972808  0.63846614
